! NanoVNA-App									
! Date: 2024-03-21 11:32:35									
! Start: 1GHz Stop: 6GHz Points: 101									
! S-Parameter data: F S11 S21 S12 S22									
# Hz S RI R 50									
!	Frequency	S11_Real	S11_Imag	S21_Real	S21_Imag	S12_Real	S12_Imag	S22_Real	S22_Imag
	1000000000	1.08E-01	-1.70E-02	-5.54E-01	-8.87E-01	0.00E+00	0.00E+00	0.00E+00	0.00E+00
	1050000000	4.56E-02	-3.66E-03	-3.69E-01	-9.73E-01	0.00E+00	0.00E+00	0.00E+00	0.00E+00
	1100000000	6.03E-02	1.22E-02	-1.57E-01	-1.03E+00	0.00E+00	0.00E+00	0.00E+00	0.00E+00
	1150000000	5.76E-02	-3.48E-02	5.27E-02	-1.04E+00	0.00E+00	0.00E+00	0.00E+00	0.00E+00
	1200000000	-1.95E-02	-4.80E-02	2.62E-01	-9.98E-01	0.00E+00	0.00E+00	0.00E+00	0.00E+00
	1250000000	-6.38E-02	3.56E-02	4.69E-01	-9.17E-01	0.00E+00	0.00E+00	0.00E+00	0.00E+00
	1300000000	2.06E-03	1.02E-01	6.54E-01	-8.04E-01	0.00E+00	0.00E+00	0.00E+00	0.00E+00
	1350000000	6.78E-02	5.85E-02	8.00E-01	-6.57E-01	0.00E+00	0.00E+00	0.00E+00	0.00E+00
	1400000000	3.16E-02	6.24E-03	9.21E-01	-4.75E-01	0.00E+00	0.00E+00	0.00E+00	0.00E+00
	1450000000	-1.80E-02	6.16E-02	9.93E-01	-2.82E-01	0.00E+00	0.00E+00	0.00E+00	0.00E+00
	1500000000	5.37E-02	1.27E-01	1.02E+00	-7.04E-02	0.00E+00	0.00E+00	0.00E+00	0.00E+00
	1550000000	1.49E-01	5.76E-02	1.01E+00	1.48E-01	0.00E+00	0.00E+00	0.00E+00	0.00E+00
	1600000000	9.68E-02	-6.22E-02	9.61E-01	3.58E-01	0.00E+00	0.00E+00	0.00E+00	0.00E+00
	1650000000	-4.08E-02	-3.31E-02	8.75E-01	5.41E-01	0.00E+00	0.00E+00	0.00E+00	0.00E+00
	1700000000	-4.22E-02	1.12E-01	7.39E-01	6.91E-01	0.00E+00	0.00E+00	0.00E+00	0.00E+00
	1750000000	9.23E-02	1.51E-01	5.69E-01	8.26E-01	0.00E+00	0.00E+00	0.00E+00	0.00E+00
	1800000000	1.57E-01	5.24E-02	3.91E-01	9.37E-01	0.00E+00	0.00E+00	0.00E+00	0.00E+00
	1850000000	9.89E-02	-7.95E-03	1.99E-01	9.94E-01	0.00E+00	0.00E+00	0.00E+00	0.00E+00
	1900000000	7.62E-02	2.61E-02	-4.02E-03	1.02E+00	0.00E+00	0.00E+00	0.00E+00	0.00E+00
	1950000000	1.20E-01	7.02E-03	-1.93E-01	1.00E+00	0.00E+00	0.00E+00	0.00E+00	0.00E+00
	2000000000	7.62E-02	-7.90E-02	-3.62E-01	9.44E-01	0.00E+00	0.00E+00	0.00E+00	0.00E+00
	2050000000	-6.08E-02	-4.57E-02	-5.25E-01	8.41E-01	0.00E+00	0.00E+00	0.00E+00	0.00E+00
	2100000000	-6.89E-02	1.20E-01	-6.77E-01	7.16E-01	0.00E+00	0.00E+00	0.00E+00	0.00E+00
	2150000000	9.06E-02	1.72E-01	-7.92E-01	5.89E-01	0.00E+00	0.00E+00	0.00E+00	0.00E+00
	2200000000	1.58E-01	3.72E-02	-8.80E-01	4.58E-01	0.00E+00	0.00E+00	0.00E+00	0.00E+00
	2250000000	2.07E-02	-2.07E-02	-9.24E-01	3.28E-01	0.00E+00	0.00E+00	0.00E+00	0.00E+00
	2300000000	-4.22E-02	1.58E-01	-9.24E-01	2.09E-01	0.00E+00	0.00E+00	0.00E+00	0.00E+00
	2350000000	1.65E-01	2.90E-01	-8.87E-01	1.09E-01	0.00E+00	0.00E+00	0.00E+00	0.00E+00
	2400000000	4.18E-01	1.52E-01	-8.01E-01	4.74E-02	0.00E+00	0.00E+00	0.00E+00	0.00E+00
	2450000000	4.90E-01	-1.79E-01	-6.55E-01	-6.15E-03	0.00E+00	0.00E+00	0.00E+00	0.00E+00
	2500000000	2.35E-01	-5.36E-01	-4.81E-01	-5.79E-02	0.00E+00	0.00E+00	0.00E+00	0.00E+00
	2550000000	-3.38E-01	-5.29E-01	-2.92E-01	-1.08E-01	0.00E+00	0.00E+00	0.00E+00	0.00E+00
	2600000000	-6.83E-01	2.60E-02	-1.20E-01	-1.34E-01	0.00E+00	0.00E+00	0.00E+00	0.00E+00
	2650000000	-3.82E-01	6.32E-01	4.40E-02	-1.29E-01	0.00E+00	0.00E+00	0.00E+00	0.00E+00
	2700000000	2.29E-01	7.39E-01	1.59E-01	-1.06E-01	0.00E+00	0.00E+00	0.00E+00	0.00E+00
	2750000000	6.63E-01	4.04E-01	2.51E-01	-3.84E-02	0.00E+00	0.00E+00	0.00E+00	0.00E+00
	2800000000	7.61E-01	-8.21E-02	3.23E-01	6.75E-02	0.00E+00	0.00E+00	0.00E+00	0.00E+00
	2850000000	5.26E-01	-4.98E-01	3.81E-01	1.83E-01	0.00E+00	0.00E+00	0.00E+00	0.00E+00
	2900000000	6.75E-02	-6.76E-01	4.16E-01	3.02E-01	0.00E+00	0.00E+00	0.00E+00	0.00E+00
	2950000000	-4.10E-01	-4.72E-01	4.19E-01	4.12E-01	0.00E+00	0.00E+00	0.00E+00	0.00E+00
	3000000000	-5.80E-01	5.52E-02	3.96E-01	4.94E-01	0.00E+00	0.00E+00	0.00E+00	0.00E+00
	3050000000	-2.80E-01	4.97E-01	3.12E-01	5.49E-01	0.00E+00	0.00E+00	0.00E+00	0.00E+00
	3100000000	1.87E-01	5.48E-01	1.78E-01	6.08E-01	0.00E+00	0.00E+00	0.00E+00	0.00E+00
	3150000000	5.02E-01	3.03E-01	4.03E-02	6.68E-01	0.00E+00	0.00E+00	0.00E+00	0.00E+00
	3200000000	5.82E-01	-3.20E-02	-8.43E-02	7.05E-01	0.00E+00	0.00E+00	0.00E+00	0.00E+00
	3250000000	4.57E-01	-3.29E-01	-2.23E-01	7.09E-01	0.00E+00	0.00E+00	0.00E+00	0.00E+00
	3300000000	1.73E-01	-4.89E-01	-3.56E-01	6.81E-01	0.00E+00	0.00E+00	0.00E+00	0.00E+00
	3350000000	-1.65E-01	-4.08E-01	-4.77E-01	6.10E-01	0.00E+00	0.00E+00	0.00E+00	0.00E+00
	3400000000	-3.43E-01	-9.26E-02	-5.91E-01	5.07E-01	0.00E+00	0.00E+00	0.00E+00	0.00E+00
	3450000000	-2.22E-01	2.41E-01	-6.79E-01	3.90E-01	0.00E+00	0.00E+00	0.00E+00	0.00E+00
	3500000000	5.24E-02	3.70E-01	-7.50E-01	2.55E-01	0.00E+00	0.00E+00	0.00E+00	0.00E+00
	3550000000	3.43E-01	3.22E-01	-7.67E-01	1.03E-01	0.00E+00	0.00E+00	0.00E+00	0.00E+00
	3600000000	5.49E-01	7.86E-02	-7.70E-01	-3.53E-02	0.00E+00	0.00E+00	0.00E+00	0.00E+00
	3650000000	5.46E-01	-2.43E-01	-7.17E-01	-2.01E-01	0.00E+00	0.00E+00	0.00E+00	0.00E+00
	3700000000	3.20E-01	-4.98E-01	-6.44E-01	-3.89E-01	0.00E+00	0.00E+00	0.00E+00	0.00E+00
	3750000000	-3.98E-02	-5.41E-01	-5.80E-01	-5.53E-01	0.00E+00	0.00E+00	0.00E+00	0.00E+00
	3800000000	-3.42E-01	-3.16E-01	-5.08E-01	-6.62E-01	0.00E+00	0.00E+00	0.00E+00	0.00E+00
	3850000000	-4.14E-01	5.50E-02	-4.00E-01	-7.28E-01	0.00E+00	0.00E+00	0.00E+00	0.00E+00
	3900000000	-2.27E-01	4.02E-01	-2.74E-01	-7.54E-01	0.00E+00	0.00E+00	0.00E+00	0.00E+00
	3950000000	1.76E-01	5.35E-01	-1.16E-01	-7.16E-01	0.00E+00	0.00E+00	0.00E+00	0.00E+00
	4000000000	5.64E-01	3.38E-01	8.79E-02	-6.55E-01	0.00E+00	0.00E+00	0.00E+00	0.00E+00
	4050000000	7.12E-01	-6.33E-02	2.78E-01	-6.02E-01	0.00E+00	0.00E+00	0.00E+00	0.00E+00
	4100000000	5.75E-01	-4.54E-01	4.21E-01	-5.31E-01	0.00E+00	0.00E+00	0.00E+00	0.00E+00
	4150000000	2.27E-01	-6.74E-01	5.50E-01	-4.11E-01	0.00E+00	0.00E+00	0.00E+00	0.00E+00
	4200000000	-1.80E-01	-6.25E-01	6.74E-01	-2.89E-01	0.00E+00	0.00E+00	0.00E+00	0.00E+00
	4250000000	-4.64E-01	-3.38E-01	7.32E-01	-1.83E-01	0.00E+00	0.00E+00	0.00E+00	0.00E+00
	4300000000	-5.23E-01	6.47E-02	7.20E-01	-4.02E-02	0.00E+00	0.00E+00	0.00E+00	0.00E+00
	4350000000	-2.97E-01	4.50E-01	6.80E-01	1.10E-01	0.00E+00	0.00E+00	0.00E+00	0.00E+00
	4400000000	1.61E-01	5.89E-01	5.95E-01	2.53E-01	0.00E+00	0.00E+00	0.00E+00	0.00E+00
	4450000000	5.89E-01	3.57E-01	4.76E-01	4.02E-01	0.00E+00	0.00E+00	0.00E+00	0.00E+00
	4500000000	7.38E-01	-7.15E-02	3.52E-01	5.34E-01	0.00E+00	0.00E+00	0.00E+00	0.00E+00
	4550000000	5.92E-01	-4.68E-01	1.96E-01	6.11E-01	0.00E+00	0.00E+00	0.00E+00	0.00E+00
	4600000000	2.52E-01	-6.75E-01	-9.27E-03	6.74E-01	0.00E+00	0.00E+00	0.00E+00	0.00E+00
	4650000000	-1.24E-01	-6.19E-01	-2.02E-01	7.43E-01	0.00E+00	0.00E+00	0.00E+00	0.00E+00
	4700000000	-3.53E-01	-3.78E-01	-3.26E-01	7.42E-01	0.00E+00	0.00E+00	0.00E+00	0.00E+00
	4750000000	-4.40E-01	-7.75E-02	-4.76E-01	6.30E-01	0.00E+00	0.00E+00	0.00E+00	0.00E+00
	4800000000	-3.18E-01	2.93E-01	-7.02E-01	5.17E-01	0.00E+00	0.00E+00	0.00E+00	0.00E+00
	4850000000	9.97E-02	4.67E-01	-9.27E-01	4.70E-01	0.00E+00	0.00E+00	0.00E+00	0.00E+00
	4900000000	4.82E-01	2.47E-01	-1.01E+00	4.45E-01	0.00E+00	0.00E+00	0.00E+00	0.00E+00
	4950000000	5.56E-01	-1.31E-01	-9.60E-01	3.11E-01	0.00E+00	0.00E+00	0.00E+00	0.00E+00
	5000000000	3.67E-01	-4.07E-01	-9.18E-01	9.09E-02	0.00E+00	0.00E+00	0.00E+00	0.00E+00
	5050000000	8.16E-02	-4.52E-01	-8.87E-01	-2.33E-01	0.00E+00	0.00E+00	0.00E+00	0.00E+00
	5100000000	-7.52E-02	-3.10E-01	-9.45E-01	-4.06E-01	0.00E+00	0.00E+00	0.00E+00	0.00E+00
	5150000000	-1.14E-01	-2.43E-01	-9.34E-01	-5.55E-01	0.00E+00	0.00E+00	0.00E+00	0.00E+00
	5200000000	-2.26E-01	-1.28E-01	-8.37E-01	-6.62E-01	0.00E+00	0.00E+00	0.00E+00	0.00E+00
	5250000000	-1.65E-01	1.42E-01	-7.00E-01	-7.76E-01	0.00E+00	0.00E+00	0.00E+00	0.00E+00
	5300000000	1.64E-01	2.01E-01	-5.56E-01	-8.46E-01	0.00E+00	0.00E+00	0.00E+00	0.00E+00
	5350000000	3.46E-01	-8.30E-02	-3.87E-01	-8.28E-01	0.00E+00	0.00E+00	0.00E+00	0.00E+00
	5400000000	1.92E-01	-3.45E-01	-1.06E-01	-8.48E-01	0.00E+00	0.00E+00	0.00E+00	0.00E+00
	5450000000	-6.07E-02	-3.14E-01	1.34E-01	-8.88E-01	0.00E+00	0.00E+00	0.00E+00	0.00E+00
	5500000000	-8.10E-02	-1.59E-01	2.97E-01	-9.06E-01	0.00E+00	0.00E+00	0.00E+00	0.00E+00
	5550000000	-2.57E-02	-1.89E-01	4.08E-01	-8.17E-01	0.00E+00	0.00E+00	0.00E+00	0.00E+00
	5600000000	-1.65E-01	-2.06E-01	5.59E-01	-6.78E-01	0.00E+00	0.00E+00	0.00E+00	0.00E+00
	5650000000	-2.34E-01	3.61E-02	6.92E-01	-5.60E-01	0.00E+00	0.00E+00	0.00E+00	0.00E+00
	5700000000	4.86E-02	2.32E-01	7.40E-01	-4.43E-01	0.00E+00	0.00E+00	0.00E+00	0.00E+00
	5750000000	3.78E-01	4.64E-02	7.39E-01	-2.69E-01	0.00E+00	0.00E+00	0.00E+00	0.00E+00
	5800000000	4.02E-01	-3.09E-01	7.21E-01	-5.97E-02	0.00E+00	0.00E+00	0.00E+00	0.00E+00
	5850000000	1.83E-01	-5.15E-01	6.75E-01	1.39E-01	0.00E+00	0.00E+00	0.00E+00	0.00E+00
	5900000000	-2.59E-02	-5.27E-01	6.31E-01	3.21E-01	0.00E+00	0.00E+00	0.00E+00	0.00E+00
	5950000000	-1.86E-01	-5.03E-01	5.66E-01	4.38E-01	0.00E+00	0.00E+00	0.00E+00	0.00E+00
	6000000000	-4.47E-01	-3.14E-01	6.87E-01	1.72E-02	0.00E+00	0.00E+00	0.00E+00	0.00E+00
