! NanoVNA-App									
! Date: 2024-03-21 11:32:16									
! Start: 1GHz Stop: 6GHz Points: 101									
! S-Parameter data: F S11 S21 S12 S22									
# Hz S RI R 50									
!	Frequency	S11_Real	S11_Imag	S21_Real	S21_Imag	S12_Real	S12_Imag	S22_Real	S22_Imag
	1000000000	1.08E-01	-1.70E-02	-5.54E-01	-8.87E-01	0.00E+00	0.00E+00	0.00E+00	0.00E+00
	1050000000	4.56E-02	-3.53E-03	-3.68E-01	-9.73E-01	0.00E+00	0.00E+00	0.00E+00	0.00E+00
	1100000000	6.05E-02	1.23E-02	-1.57E-01	-1.03E+00	0.00E+00	0.00E+00	0.00E+00	0.00E+00
	1150000000	5.75E-02	-3.48E-02	5.11E-02	-1.04E+00	0.00E+00	0.00E+00	0.00E+00	0.00E+00
	1200000000	-1.95E-02	-4.80E-02	2.63E-01	-9.98E-01	0.00E+00	0.00E+00	0.00E+00	0.00E+00
	1250000000	-6.39E-02	3.57E-02	4.69E-01	-9.17E-01	0.00E+00	0.00E+00	0.00E+00	0.00E+00
	1300000000	2.02E-03	1.02E-01	6.54E-01	-8.05E-01	0.00E+00	0.00E+00	0.00E+00	0.00E+00
	1350000000	6.78E-02	5.84E-02	8.01E-01	-6.57E-01	0.00E+00	0.00E+00	0.00E+00	0.00E+00
	1400000000	3.16E-02	6.17E-03	9.21E-01	-4.75E-01	0.00E+00	0.00E+00	0.00E+00	0.00E+00
	1450000000	-1.81E-02	6.17E-02	9.93E-01	-2.81E-01	0.00E+00	0.00E+00	0.00E+00	0.00E+00
	1500000000	5.38E-02	1.27E-01	1.02E+00	-7.06E-02	0.00E+00	0.00E+00	0.00E+00	0.00E+00
	1550000000	1.49E-01	5.76E-02	1.01E+00	1.49E-01	0.00E+00	0.00E+00	0.00E+00	0.00E+00
	1600000000	9.69E-02	-6.29E-02	9.59E-01	3.54E-01	0.00E+00	0.00E+00	0.00E+00	0.00E+00
	1650000000	-4.08E-02	-3.30E-02	8.73E-01	5.40E-01	0.00E+00	0.00E+00	0.00E+00	0.00E+00
	1700000000	-4.21E-02	1.12E-01	7.40E-01	6.90E-01	0.00E+00	0.00E+00	0.00E+00	0.00E+00
	1750000000	9.21E-02	1.51E-01	5.68E-01	8.26E-01	0.00E+00	0.00E+00	0.00E+00	0.00E+00
	1800000000	1.57E-01	5.19E-02	3.92E-01	9.36E-01	0.00E+00	0.00E+00	0.00E+00	0.00E+00
	1850000000	9.87E-02	-8.07E-03	1.97E-01	9.94E-01	0.00E+00	0.00E+00	0.00E+00	0.00E+00
	1900000000	7.61E-02	2.59E-02	-4.44E-03	1.01E+00	0.00E+00	0.00E+00	0.00E+00	0.00E+00
	1950000000	1.20E-01	7.01E-03	-1.93E-01	1.00E+00	0.00E+00	0.00E+00	0.00E+00	0.00E+00
	2000000000	7.63E-02	-7.89E-02	-3.61E-01	9.44E-01	0.00E+00	0.00E+00	0.00E+00	0.00E+00
	2050000000	-6.12E-02	-4.57E-02	-5.25E-01	8.41E-01	0.00E+00	0.00E+00	0.00E+00	0.00E+00
	2100000000	-6.88E-02	1.20E-01	-6.76E-01	7.17E-01	0.00E+00	0.00E+00	0.00E+00	0.00E+00
	2150000000	9.03E-02	1.72E-01	-7.95E-01	5.88E-01	0.00E+00	0.00E+00	0.00E+00	0.00E+00
	2200000000	1.58E-01	3.72E-02	-8.80E-01	4.57E-01	0.00E+00	0.00E+00	0.00E+00	0.00E+00
	2250000000	2.05E-02	-2.06E-02	-9.25E-01	3.28E-01	0.00E+00	0.00E+00	0.00E+00	0.00E+00
	2300000000	-4.22E-02	1.58E-01	-9.24E-01	2.08E-01	0.00E+00	0.00E+00	0.00E+00	0.00E+00
	2350000000	1.66E-01	2.91E-01	-8.90E-01	1.10E-01	0.00E+00	0.00E+00	0.00E+00	0.00E+00
	2400000000	4.19E-01	1.52E-01	-8.01E-01	4.71E-02	0.00E+00	0.00E+00	0.00E+00	0.00E+00
	2450000000	4.90E-01	-1.79E-01	-6.55E-01	-5.20E-03	0.00E+00	0.00E+00	0.00E+00	0.00E+00
	2500000000	2.36E-01	-5.39E-01	-4.81E-01	-5.89E-02	0.00E+00	0.00E+00	0.00E+00	0.00E+00
	2550000000	-3.37E-01	-5.28E-01	-2.91E-01	-1.09E-01	0.00E+00	0.00E+00	0.00E+00	0.00E+00
	2600000000	-6.83E-01	2.64E-02	-1.20E-01	-1.33E-01	0.00E+00	0.00E+00	0.00E+00	0.00E+00
	2650000000	-3.82E-01	6.31E-01	4.40E-02	-1.29E-01	0.00E+00	0.00E+00	0.00E+00	0.00E+00
	2700000000	2.32E-01	7.37E-01	1.58E-01	-1.05E-01	0.00E+00	0.00E+00	0.00E+00	0.00E+00
	2750000000	6.63E-01	4.05E-01	2.51E-01	-3.76E-02	0.00E+00	0.00E+00	0.00E+00	0.00E+00
	2800000000	7.56E-01	-8.50E-02	3.25E-01	6.54E-02	0.00E+00	0.00E+00	0.00E+00	0.00E+00
	2850000000	5.27E-01	-4.97E-01	3.81E-01	1.85E-01	0.00E+00	0.00E+00	0.00E+00	0.00E+00
	2900000000	6.95E-02	-6.75E-01	4.16E-01	3.03E-01	0.00E+00	0.00E+00	0.00E+00	0.00E+00
	2950000000	-4.13E-01	-4.71E-01	4.18E-01	4.08E-01	0.00E+00	0.00E+00	0.00E+00	0.00E+00
	3000000000	-5.81E-01	5.53E-02	3.95E-01	4.97E-01	0.00E+00	0.00E+00	0.00E+00	0.00E+00
	3050000000	-2.80E-01	4.97E-01	3.11E-01	5.49E-01	0.00E+00	0.00E+00	0.00E+00	0.00E+00
	3100000000	1.88E-01	5.48E-01	1.80E-01	6.08E-01	0.00E+00	0.00E+00	0.00E+00	0.00E+00
	3150000000	5.02E-01	3.04E-01	4.00E-02	6.68E-01	0.00E+00	0.00E+00	0.00E+00	0.00E+00
	3200000000	5.82E-01	-3.06E-02	-8.57E-02	7.05E-01	0.00E+00	0.00E+00	0.00E+00	0.00E+00
	3250000000	4.57E-01	-3.30E-01	-2.23E-01	7.09E-01	0.00E+00	0.00E+00	0.00E+00	0.00E+00
	3300000000	1.72E-01	-4.87E-01	-3.57E-01	6.79E-01	0.00E+00	0.00E+00	0.00E+00	0.00E+00
	3350000000	-1.64E-01	-4.08E-01	-4.78E-01	6.09E-01	0.00E+00	0.00E+00	0.00E+00	0.00E+00
	3400000000	-3.43E-01	-9.26E-02	-5.92E-01	5.07E-01	0.00E+00	0.00E+00	0.00E+00	0.00E+00
	3450000000	-2.21E-01	2.41E-01	-6.80E-01	3.89E-01	0.00E+00	0.00E+00	0.00E+00	0.00E+00
	3500000000	5.29E-02	3.69E-01	-7.50E-01	2.57E-01	0.00E+00	0.00E+00	0.00E+00	0.00E+00
	3550000000	3.43E-01	3.21E-01	-7.67E-01	1.05E-01	0.00E+00	0.00E+00	0.00E+00	0.00E+00
	3600000000	5.51E-01	7.89E-02	-7.69E-01	-3.49E-02	0.00E+00	0.00E+00	0.00E+00	0.00E+00
	3650000000	5.46E-01	-2.42E-01	-7.17E-01	-2.01E-01	0.00E+00	0.00E+00	0.00E+00	0.00E+00
	3700000000	3.19E-01	-4.99E-01	-6.44E-01	-3.88E-01	0.00E+00	0.00E+00	0.00E+00	0.00E+00
	3750000000	-4.06E-02	-5.40E-01	-5.81E-01	-5.53E-01	0.00E+00	0.00E+00	0.00E+00	0.00E+00
	3800000000	-3.41E-01	-3.16E-01	-5.08E-01	-6.63E-01	0.00E+00	0.00E+00	0.00E+00	0.00E+00
	3850000000	-4.15E-01	5.47E-02	-4.00E-01	-7.29E-01	0.00E+00	0.00E+00	0.00E+00	0.00E+00
	3900000000	-2.27E-01	4.01E-01	-2.74E-01	-7.57E-01	0.00E+00	0.00E+00	0.00E+00	0.00E+00
	3950000000	1.78E-01	5.35E-01	-1.16E-01	-7.16E-01	0.00E+00	0.00E+00	0.00E+00	0.00E+00
	4000000000	5.65E-01	3.37E-01	8.76E-02	-6.56E-01	0.00E+00	0.00E+00	0.00E+00	0.00E+00
	4050000000	7.12E-01	-6.30E-02	2.79E-01	-6.02E-01	0.00E+00	0.00E+00	0.00E+00	0.00E+00
	4100000000	5.75E-01	-4.53E-01	4.20E-01	-5.31E-01	0.00E+00	0.00E+00	0.00E+00	0.00E+00
	4150000000	2.27E-01	-6.74E-01	5.50E-01	-4.13E-01	0.00E+00	0.00E+00	0.00E+00	0.00E+00
	4200000000	-1.80E-01	-6.26E-01	6.75E-01	-2.88E-01	0.00E+00	0.00E+00	0.00E+00	0.00E+00
	4250000000	-4.65E-01	-3.37E-01	7.33E-01	-1.83E-01	0.00E+00	0.00E+00	0.00E+00	0.00E+00
	4300000000	-5.24E-01	6.37E-02	7.21E-01	-3.81E-02	0.00E+00	0.00E+00	0.00E+00	0.00E+00
	4350000000	-2.96E-01	4.51E-01	6.81E-01	1.09E-01	0.00E+00	0.00E+00	0.00E+00	0.00E+00
	4400000000	1.61E-01	5.88E-01	5.94E-01	2.54E-01	0.00E+00	0.00E+00	0.00E+00	0.00E+00
	4450000000	5.90E-01	3.58E-01	4.78E-01	4.01E-01	0.00E+00	0.00E+00	0.00E+00	0.00E+00
	4500000000	7.38E-01	-7.27E-02	3.53E-01	5.31E-01	0.00E+00	0.00E+00	0.00E+00	0.00E+00
	4550000000	5.91E-01	-4.67E-01	1.95E-01	6.11E-01	0.00E+00	0.00E+00	0.00E+00	0.00E+00
	4600000000	2.51E-01	-6.75E-01	-6.95E-03	6.75E-01	0.00E+00	0.00E+00	0.00E+00	0.00E+00
	4650000000	-1.23E-01	-6.21E-01	-2.04E-01	7.43E-01	0.00E+00	0.00E+00	0.00E+00	0.00E+00
	4700000000	-3.53E-01	-3.80E-01	-3.28E-01	7.41E-01	0.00E+00	0.00E+00	0.00E+00	0.00E+00
	4750000000	-4.41E-01	-7.44E-02	-4.74E-01	6.33E-01	0.00E+00	0.00E+00	0.00E+00	0.00E+00
	4800000000	-3.18E-01	2.93E-01	-7.02E-01	5.19E-01	0.00E+00	0.00E+00	0.00E+00	0.00E+00
	4850000000	1.01E-01	4.68E-01	-9.26E-01	4.72E-01	0.00E+00	0.00E+00	0.00E+00	0.00E+00
	4900000000	4.82E-01	2.47E-01	-1.01E+00	4.45E-01	0.00E+00	0.00E+00	0.00E+00	0.00E+00
	4950000000	5.56E-01	-1.30E-01	-9.60E-01	3.09E-01	0.00E+00	0.00E+00	0.00E+00	0.00E+00
	5000000000	3.67E-01	-4.08E-01	-9.18E-01	9.02E-02	0.00E+00	0.00E+00	0.00E+00	0.00E+00
	5050000000	8.06E-02	-4.53E-01	-8.89E-01	-2.31E-01	0.00E+00	0.00E+00	0.00E+00	0.00E+00
	5100000000	-7.47E-02	-3.14E-01	-9.47E-01	-4.12E-01	0.00E+00	0.00E+00	0.00E+00	0.00E+00
	5150000000	-1.13E-01	-2.44E-01	-9.31E-01	-5.59E-01	0.00E+00	0.00E+00	0.00E+00	0.00E+00
	5200000000	-2.25E-01	-1.27E-01	-8.37E-01	-6.59E-01	0.00E+00	0.00E+00	0.00E+00	0.00E+00
	5250000000	-1.65E-01	1.41E-01	-6.99E-01	-7.78E-01	0.00E+00	0.00E+00	0.00E+00	0.00E+00
	5300000000	1.65E-01	2.01E-01	-5.54E-01	-8.49E-01	0.00E+00	0.00E+00	0.00E+00	0.00E+00
	5350000000	3.49E-01	-8.47E-02	-3.80E-01	-8.34E-01	0.00E+00	0.00E+00	0.00E+00	0.00E+00
	5400000000	1.89E-01	-3.45E-01	-1.10E-01	-8.47E-01	0.00E+00	0.00E+00	0.00E+00	0.00E+00
	5450000000	-6.18E-02	-3.14E-01	1.33E-01	-8.88E-01	0.00E+00	0.00E+00	0.00E+00	0.00E+00
	5500000000	-8.15E-02	-1.58E-01	2.94E-01	-9.07E-01	0.00E+00	0.00E+00	0.00E+00	0.00E+00
	5550000000	-2.45E-02	-1.91E-01	4.13E-01	-8.18E-01	0.00E+00	0.00E+00	0.00E+00	0.00E+00
	5600000000	-1.66E-01	-2.06E-01	5.59E-01	-6.78E-01	0.00E+00	0.00E+00	0.00E+00	0.00E+00
	5650000000	-2.34E-01	3.61E-02	6.91E-01	-5.61E-01	0.00E+00	0.00E+00	0.00E+00	0.00E+00
	5700000000	4.85E-02	2.32E-01	7.42E-01	-4.41E-01	0.00E+00	0.00E+00	0.00E+00	0.00E+00
	5750000000	3.79E-01	4.60E-02	7.40E-01	-2.67E-01	0.00E+00	0.00E+00	0.00E+00	0.00E+00
	5800000000	4.03E-01	-3.08E-01	7.21E-01	-5.76E-02	0.00E+00	0.00E+00	0.00E+00	0.00E+00
	5850000000	1.86E-01	-5.14E-01	6.75E-01	1.40E-01	0.00E+00	0.00E+00	0.00E+00	0.00E+00
	5900000000	-2.57E-02	-5.27E-01	6.32E-01	3.22E-01	0.00E+00	0.00E+00	0.00E+00	0.00E+00
	5950000000	-1.89E-01	-5.02E-01	5.68E-01	4.36E-01	0.00E+00	0.00E+00	0.00E+00	0.00E+00
	6000000000	-4.45E-01	-3.14E-01	6.87E-01	1.89E-02	0.00E+00	0.00E+00	0.00E+00	0.00E+00
