! NanoVNA-App									
! Date: 2024-03-21 15:18:50									
! Start: 1GHz Stop: 6GHz Points: 101									
! S-Parameter data: F S11 S21 S12 S22									
# Hz S RI R 50									
!	Frequency	S11_Real	S11_Imag	S21_Real	S21_Imag	S12_Real	S12_Imag	S22_Real	S22_Imag
	1000000000	1.21E-01	-2.32E-02	-5.58E-01	-8.75E-01	0.00E+00	0.00E+00	0.00E+00	0.00E+00
	1050000000	5.21E-02	-2.23E-02	-3.77E-01	-9.64E-01	0.00E+00	0.00E+00	0.00E+00	0.00E+00
	1100000000	4.96E-02	-1.13E-02	-1.71E-01	-1.02E+00	0.00E+00	0.00E+00	0.00E+00	0.00E+00
	1150000000	2.94E-02	-4.73E-02	3.39E-02	-1.03E+00	0.00E+00	0.00E+00	0.00E+00	0.00E+00
	1200000000	-5.16E-02	-3.67E-02	2.40E-01	-9.91E-01	0.00E+00	0.00E+00	0.00E+00	0.00E+00
	1250000000	-7.89E-02	6.73E-02	4.46E-01	-9.11E-01	0.00E+00	0.00E+00	0.00E+00	0.00E+00
	1300000000	1.49E-02	1.36E-01	6.28E-01	-8.04E-01	0.00E+00	0.00E+00	0.00E+00	0.00E+00
	1350000000	1.01E-01	6.58E-02	7.69E-01	-6.57E-01	0.00E+00	0.00E+00	0.00E+00	0.00E+00
	1400000000	7.30E-02	4.92E-03	8.99E-01	-4.86E-01	0.00E+00	0.00E+00	0.00E+00	0.00E+00
	1450000000	1.81E-02	2.23E-02	9.72E-01	-3.04E-01	0.00E+00	0.00E+00	0.00E+00	0.00E+00
	1500000000	5.32E-02	6.35E-02	1.00E+00	-1.05E-01	0.00E+00	0.00E+00	0.00E+00	0.00E+00
	1550000000	9.57E-02	4.32E-03	9.91E-01	9.66E-02	0.00E+00	0.00E+00	0.00E+00	0.00E+00
	1600000000	1.19E-02	-5.80E-02	9.47E-01	2.89E-01	0.00E+00	0.00E+00	0.00E+00	0.00E+00
	1650000000	-9.39E-02	3.77E-02	8.60E-01	4.59E-01	0.00E+00	0.00E+00	0.00E+00	0.00E+00
	1700000000	-2.49E-02	1.97E-01	7.32E-01	6.03E-01	0.00E+00	0.00E+00	0.00E+00	0.00E+00
	1750000000	1.60E-01	1.97E-01	5.77E-01	7.34E-01	0.00E+00	0.00E+00	0.00E+00	0.00E+00
	1800000000	2.36E-01	4.15E-02	4.26E-01	8.43E-01	0.00E+00	0.00E+00	0.00E+00	0.00E+00
	1850000000	1.52E-01	-7.20E-02	2.74E-01	8.98E-01	0.00E+00	0.00E+00	0.00E+00	0.00E+00
	1900000000	6.46E-02	-5.45E-02	1.28E-01	9.11E-01	0.00E+00	0.00E+00	0.00E+00	0.00E+00
	1950000000	5.46E-02	-2.03E-02	1.36E-02	8.92E-01	0.00E+00	0.00E+00	0.00E+00	0.00E+00
	2000000000	7.95E-02	-2.27E-02	-4.27E-02	8.07E-01	0.00E+00	0.00E+00	0.00E+00	0.00E+00
	2050000000	5.75E-02	-2.02E-01	-3.57E-02	5.51E-01	0.00E+00	0.00E+00	0.00E+00	0.00E+00
	2100000000	-4.04E-01	-3.54E-02	-2.86E-01	2.01E-01	0.00E+00	0.00E+00	0.00E+00	0.00E+00
	2150000000	-1.91E-01	4.69E-01	-5.03E-01	6.90E-02	0.00E+00	0.00E+00	0.00E+00	0.00E+00
	2200000000	2.63E-01	4.83E-01	-6.03E-01	-4.75E-02	0.00E+00	0.00E+00	0.00E+00	0.00E+00
	2250000000	5.12E-01	1.81E-01	-6.40E-01	-1.57E-01	0.00E+00	0.00E+00	0.00E+00	0.00E+00
	2300000000	4.63E-01	-1.62E-01	-6.15E-01	-2.65E-01	0.00E+00	0.00E+00	0.00E+00	0.00E+00
	2350000000	2.13E-01	-3.48E-01	-5.46E-01	-3.75E-01	0.00E+00	0.00E+00	0.00E+00	0.00E+00
	2400000000	-7.49E-02	-3.18E-01	-4.63E-01	-4.69E-01	0.00E+00	0.00E+00	0.00E+00	0.00E+00
	2450000000	-2.41E-01	-8.85E-02	-3.74E-01	-5.29E-01	0.00E+00	0.00E+00	0.00E+00	0.00E+00
	2500000000	-1.31E-01	1.28E-01	-3.08E-01	-5.01E-01	0.00E+00	0.00E+00	0.00E+00	0.00E+00
	2550000000	-1.67E-01	1.38E-01	-3.84E-02	-3.39E-01	0.00E+00	0.00E+00	0.00E+00	0.00E+00
	2600000000	4.29E-02	3.80E-01	2.10E-01	-4.03E-01	0.00E+00	0.00E+00	0.00E+00	0.00E+00
	2650000000	3.41E-01	2.66E-01	3.51E-01	-3.84E-01	0.00E+00	0.00E+00	0.00E+00	0.00E+00
	2700000000	4.12E-01	-1.67E-02	4.78E-01	-3.07E-01	0.00E+00	0.00E+00	0.00E+00	0.00E+00
	2750000000	2.58E-01	-2.22E-01	5.86E-01	-1.99E-01	0.00E+00	0.00E+00	0.00E+00	0.00E+00
	2800000000	4.53E-02	-2.30E-01	6.73E-01	-7.05E-02	0.00E+00	0.00E+00	0.00E+00	0.00E+00
	2850000000	-7.40E-02	-1.01E-01	7.22E-01	4.51E-02	0.00E+00	0.00E+00	0.00E+00	0.00E+00
	2900000000	-5.62E-02	3.41E-02	7.07E-01	1.67E-01	0.00E+00	0.00E+00	0.00E+00	0.00E+00
	2950000000	1.19E-02	8.42E-02	6.34E-01	3.43E-01	0.00E+00	0.00E+00	0.00E+00	0.00E+00
	3000000000	1.08E-01	1.31E-01	5.93E-01	4.97E-01	0.00E+00	0.00E+00	0.00E+00	0.00E+00
	3050000000	2.22E-01	6.47E-02	4.97E-01	6.12E-01	0.00E+00	0.00E+00	0.00E+00	0.00E+00
	3100000000	2.35E-01	-6.62E-02	3.66E-01	7.23E-01	0.00E+00	0.00E+00	0.00E+00	0.00E+00
	3150000000	1.41E-01	-1.47E-01	2.41E-01	8.08E-01	0.00E+00	0.00E+00	0.00E+00	0.00E+00
	3200000000	4.23E-02	-1.15E-01	1.05E-01	8.35E-01	0.00E+00	0.00E+00	0.00E+00	0.00E+00
	3250000000	2.28E-02	-3.55E-02	-5.81E-02	8.25E-01	0.00E+00	0.00E+00	0.00E+00	0.00E+00
	3300000000	5.85E-02	9.86E-03	-2.19E-01	7.94E-01	0.00E+00	0.00E+00	0.00E+00	0.00E+00
	3350000000	9.14E-02	1.64E-02	-3.63E-01	7.30E-01	0.00E+00	0.00E+00	0.00E+00	0.00E+00
	3400000000	9.51E-02	3.01E-02	-4.78E-01	6.49E-01	0.00E+00	0.00E+00	0.00E+00	0.00E+00
	3450000000	1.85E-01	9.58E-02	-5.02E-01	5.08E-01	0.00E+00	0.00E+00	0.00E+00	0.00E+00
	3500000000	2.78E-01	-5.92E-03	-5.67E-01	2.80E-01	0.00E+00	0.00E+00	0.00E+00	0.00E+00
	3550000000	2.69E-01	-1.51E-01	-6.43E-01	3.41E-02	0.00E+00	0.00E+00	0.00E+00	0.00E+00
	3600000000	1.49E-01	-1.96E-01	-7.14E-01	-1.35E-01	0.00E+00	0.00E+00	0.00E+00	0.00E+00
	3650000000	7.69E-02	-1.71E-01	-7.07E-01	-2.95E-01	0.00E+00	0.00E+00	0.00E+00	0.00E+00
	3700000000	2.26E-02	-1.35E-01	-6.56E-01	-4.65E-01	0.00E+00	0.00E+00	0.00E+00	0.00E+00
	3750000000	-1.49E-02	-6.16E-02	-5.86E-01	-6.17E-01	0.00E+00	0.00E+00	0.00E+00	0.00E+00
	3800000000	1.60E-02	2.31E-02	-4.79E-01	-7.17E-01	0.00E+00	0.00E+00	0.00E+00	0.00E+00
	3850000000	8.15E-02	4.19E-02	-3.14E-01	-7.93E-01	0.00E+00	0.00E+00	0.00E+00	0.00E+00
	3900000000	1.00E-01	4.02E-02	-1.40E-01	-8.54E-01	0.00E+00	0.00E+00	0.00E+00	0.00E+00
	3950000000	1.40E-01	8.79E-02	2.86E-02	-8.53E-01	0.00E+00	0.00E+00	0.00E+00	0.00E+00
	4000000000	2.77E-01	8.02E-02	2.32E-01	-8.06E-01	0.00E+00	0.00E+00	0.00E+00	0.00E+00
	4050000000	3.79E-01	-8.35E-02	4.40E-01	-7.57E-01	0.00E+00	0.00E+00	0.00E+00	0.00E+00
	4100000000	3.03E-01	-2.97E-01	5.83E-01	-6.84E-01	0.00E+00	0.00E+00	0.00E+00	0.00E+00
	4150000000	8.38E-02	-3.76E-01	7.12E-01	-5.40E-01	0.00E+00	0.00E+00	0.00E+00	0.00E+00
	4200000000	-9.32E-02	-2.71E-01	8.45E-01	-3.85E-01	0.00E+00	0.00E+00	0.00E+00	0.00E+00
	4250000000	-1.35E-01	-1.33E-01	9.08E-01	-2.43E-01	0.00E+00	0.00E+00	0.00E+00	0.00E+00
	4300000000	-1.50E-01	-3.15E-02	9.10E-01	-5.91E-02	0.00E+00	0.00E+00	0.00E+00	0.00E+00
	4350000000	-1.23E-01	1.39E-01	8.96E-01	1.25E-01	0.00E+00	0.00E+00	0.00E+00	0.00E+00
	4400000000	9.48E-02	2.79E-01	8.19E-01	2.89E-01	0.00E+00	0.00E+00	0.00E+00	0.00E+00
	4450000000	3.81E-01	1.70E-01	6.92E-01	4.64E-01	0.00E+00	0.00E+00	0.00E+00	0.00E+00
	4500000000	4.67E-01	-1.23E-01	5.57E-01	6.26E-01	0.00E+00	0.00E+00	0.00E+00	0.00E+00
	4550000000	3.10E-01	-3.46E-01	3.92E-01	7.35E-01	0.00E+00	0.00E+00	0.00E+00	0.00E+00
	4600000000	1.06E-01	-3.52E-01	1.89E-01	8.28E-01	0.00E+00	0.00E+00	0.00E+00	0.00E+00
	4650000000	3.58E-02	-3.03E-01	-6.43E-03	8.69E-01	0.00E+00	0.00E+00	0.00E+00	0.00E+00
	4700000000	-6.58E-02	-2.41E-01	-2.34E-01	8.84E-01	0.00E+00	0.00E+00	0.00E+00	0.00E+00
	4750000000	-1.08E-01	-1.68E-01	-4.22E-01	8.17E-01	0.00E+00	0.00E+00	0.00E+00	0.00E+00
	4800000000	-1.31E-01	4.92E-04	-6.76E-01	7.40E-01	0.00E+00	0.00E+00	0.00E+00	0.00E+00
	4850000000	5.80E-02	1.32E-01	-9.17E-01	7.16E-01	0.00E+00	0.00E+00	0.00E+00	0.00E+00
	4900000000	2.51E-01	2.40E-03	-1.02E+00	6.81E-01	0.00E+00	0.00E+00	0.00E+00	0.00E+00
	4950000000	1.94E-01	-1.91E-01	-1.04E+00	5.49E-01	0.00E+00	0.00E+00	0.00E+00	0.00E+00
	5000000000	1.70E-02	-1.62E-01	-1.05E+00	3.65E-01	0.00E+00	0.00E+00	0.00E+00	0.00E+00
	5050000000	5.20E-02	1.20E-02	-1.08E+00	8.17E-02	0.00E+00	0.00E+00	0.00E+00	0.00E+00
	5100000000	2.54E-01	-2.03E-02	-1.08E+00	-1.71E-02	0.00E+00	0.00E+00	0.00E+00	0.00E+00
	5150000000	2.73E-01	-2.43E-01	-9.88E-01	-1.89E-01	0.00E+00	0.00E+00	0.00E+00	0.00E+00
	5200000000	7.34E-02	-3.47E-01	-8.73E-01	-3.62E-01	0.00E+00	0.00E+00	0.00E+00	0.00E+00
	5250000000	-7.47E-02	-2.33E-01	-7.49E-01	-5.32E-01	0.00E+00	0.00E+00	0.00E+00	0.00E+00
	5300000000	-3.49E-02	-1.47E-01	-6.08E-01	-6.72E-01	0.00E+00	0.00E+00	0.00E+00	0.00E+00
	5350000000	-5.53E-02	-1.88E-01	-4.57E-01	-7.35E-01	0.00E+00	0.00E+00	0.00E+00	0.00E+00
	5400000000	-1.61E-01	-1.10E-01	-2.48E-01	-7.91E-01	0.00E+00	0.00E+00	0.00E+00	0.00E+00
	5450000000	-9.79E-02	7.32E-02	-7.43E-02	-8.40E-01	0.00E+00	0.00E+00	0.00E+00	0.00E+00
	5500000000	1.26E-01	6.48E-02	5.99E-02	-8.03E-01	0.00E+00	0.00E+00	0.00E+00	0.00E+00
	5550000000	1.84E-01	-1.32E-01	2.30E-01	-6.93E-01	0.00E+00	0.00E+00	0.00E+00	0.00E+00
	5600000000	4.47E-02	-2.01E-01	3.90E-01	-5.61E-01	0.00E+00	0.00E+00	0.00E+00	0.00E+00
	5650000000	4.13E-02	-1.37E-01	5.47E-01	-4.13E-01	0.00E+00	0.00E+00	0.00E+00	0.00E+00
	5700000000	8.75E-02	-1.45E-01	6.54E-01	-2.83E-01	0.00E+00	0.00E+00	0.00E+00	0.00E+00
	5750000000	1.24E-01	-2.31E-01	7.07E-01	-1.21E-01	0.00E+00	0.00E+00	0.00E+00	0.00E+00
	5800000000	5.87E-02	-3.25E-01	7.30E-01	5.02E-02	0.00E+00	0.00E+00	0.00E+00	0.00E+00
	5850000000	-6.00E-02	-3.20E-01	7.02E-01	2.11E-01	0.00E+00	0.00E+00	0.00E+00	0.00E+00
	5900000000	-8.15E-02	-2.24E-01	6.61E-01	3.76E-01	0.00E+00	0.00E+00	0.00E+00	0.00E+00
	5950000000	-8.15E-03	-2.36E-01	5.95E-01	4.91E-01	0.00E+00	0.00E+00	0.00E+00	0.00E+00
	6000000000	-1.21E-01	-2.79E-01	7.41E-01	3.42E-02	0.00E+00	0.00E+00	0.00E+00	0.00E+00
