! NanoVNA-App									
! Date: 2024-03-21 12:38:28									
! Start: 1GHz Stop: 6GHz Points: 101									
! S-Parameter data: F S11 S21 S12 S22									
# Hz S RI R 50									
!	Frequency	S11_Real	S11_Imag	S21_Real	S21_Imag	S12_Real	S12_Imag	S22_Real	S22_Imag
	1000000000	1.22E-01	-2.37E-02	-5.54E-01	-8.79E-01	0.00E+00	0.00E+00	0.00E+00	0.00E+00
	1050000000	5.25E-02	-2.26E-02	-3.74E-01	-9.64E-01	0.00E+00	0.00E+00	0.00E+00	0.00E+00
	1100000000	5.00E-02	-1.09E-02	-1.66E-01	-1.02E+00	0.00E+00	0.00E+00	0.00E+00	0.00E+00
	1150000000	3.03E-02	-4.61E-02	3.69E-02	-1.03E+00	0.00E+00	0.00E+00	0.00E+00	0.00E+00
	1200000000	-4.98E-02	-3.58E-02	2.44E-01	-9.88E-01	0.00E+00	0.00E+00	0.00E+00	0.00E+00
	1250000000	-7.71E-02	6.77E-02	4.49E-01	-9.08E-01	0.00E+00	0.00E+00	0.00E+00	0.00E+00
	1300000000	1.68E-02	1.36E-01	6.30E-01	-8.00E-01	0.00E+00	0.00E+00	0.00E+00	0.00E+00
	1350000000	1.03E-01	6.52E-02	7.70E-01	-6.52E-01	0.00E+00	0.00E+00	0.00E+00	0.00E+00
	1400000000	7.44E-02	4.42E-03	9.00E-01	-4.81E-01	0.00E+00	0.00E+00	0.00E+00	0.00E+00
	1450000000	1.83E-02	2.13E-02	9.72E-01	-3.00E-01	0.00E+00	0.00E+00	0.00E+00	0.00E+00
	1500000000	5.21E-02	6.32E-02	1.00E+00	-1.02E-01	0.00E+00	0.00E+00	0.00E+00	0.00E+00
	1550000000	9.41E-02	6.13E-03	9.89E-01	1.01E-01	0.00E+00	0.00E+00	0.00E+00	0.00E+00
	1600000000	1.12E-02	-5.47E-02	9.41E-01	2.90E-01	0.00E+00	0.00E+00	0.00E+00	0.00E+00
	1650000000	-9.27E-02	4.20E-02	8.56E-01	4.58E-01	0.00E+00	0.00E+00	0.00E+00	0.00E+00
	1700000000	-2.09E-02	2.00E-01	7.27E-01	6.03E-01	0.00E+00	0.00E+00	0.00E+00	0.00E+00
	1750000000	1.65E-01	1.96E-01	5.72E-01	7.33E-01	0.00E+00	0.00E+00	0.00E+00	0.00E+00
	1800000000	2.41E-01	3.77E-02	4.20E-01	8.41E-01	0.00E+00	0.00E+00	0.00E+00	0.00E+00
	1850000000	1.52E-01	-7.76E-02	2.66E-01	8.95E-01	0.00E+00	0.00E+00	0.00E+00	0.00E+00
	1900000000	5.96E-02	-5.86E-02	1.21E-01	9.07E-01	0.00E+00	0.00E+00	0.00E+00	0.00E+00
	1950000000	4.70E-02	-1.93E-02	4.79E-03	8.87E-01	0.00E+00	0.00E+00	0.00E+00	0.00E+00
	2000000000	7.26E-02	-1.60E-02	-5.00E-02	8.03E-01	0.00E+00	0.00E+00	0.00E+00	0.00E+00
	2050000000	6.03E-02	-1.89E-01	-3.51E-02	5.60E-01	0.00E+00	0.00E+00	0.00E+00	0.00E+00
	2100000000	-3.92E-01	-3.55E-02	-2.78E-01	1.95E-01	0.00E+00	0.00E+00	0.00E+00	0.00E+00
	2150000000	-1.86E-01	4.69E-01	-4.93E-01	6.10E-02	0.00E+00	0.00E+00	0.00E+00	0.00E+00
	2200000000	2.70E-01	4.79E-01	-5.93E-01	-5.40E-02	0.00E+00	0.00E+00	0.00E+00	0.00E+00
	2250000000	5.14E-01	1.72E-01	-6.27E-01	-1.64E-01	0.00E+00	0.00E+00	0.00E+00	0.00E+00
	2300000000	4.57E-01	-1.72E-01	-5.99E-01	-2.72E-01	0.00E+00	0.00E+00	0.00E+00	0.00E+00
	2350000000	2.02E-01	-3.51E-01	-5.29E-01	-3.82E-01	0.00E+00	0.00E+00	0.00E+00	0.00E+00
	2400000000	-8.88E-02	-3.05E-01	-4.41E-01	-4.72E-01	0.00E+00	0.00E+00	0.00E+00	0.00E+00
	2450000000	-2.38E-01	-6.82E-02	-3.53E-01	-5.32E-01	0.00E+00	0.00E+00	0.00E+00	0.00E+00
	2500000000	-1.13E-01	1.37E-01	-2.83E-01	-5.00E-01	0.00E+00	0.00E+00	0.00E+00	0.00E+00
	2550000000	-1.46E-01	1.30E-01	-1.67E-02	-3.40E-01	0.00E+00	0.00E+00	0.00E+00	0.00E+00
	2600000000	4.65E-02	3.60E-01	2.35E-01	-3.98E-01	0.00E+00	0.00E+00	0.00E+00	0.00E+00
	2650000000	3.28E-01	2.52E-01	3.76E-01	-3.76E-01	0.00E+00	0.00E+00	0.00E+00	0.00E+00
	2700000000	3.94E-01	-1.77E-02	5.00E-01	-2.98E-01	0.00E+00	0.00E+00	0.00E+00	0.00E+00
	2750000000	2.46E-01	-2.09E-01	6.06E-01	-1.88E-01	0.00E+00	0.00E+00	0.00E+00	0.00E+00
	2800000000	4.25E-02	-2.13E-01	6.96E-01	-6.20E-02	0.00E+00	0.00E+00	0.00E+00	0.00E+00
	2850000000	-5.78E-02	-8.95E-02	7.37E-01	5.79E-02	0.00E+00	0.00E+00	0.00E+00	0.00E+00
	2900000000	-3.83E-02	2.85E-02	7.18E-01	1.85E-01	0.00E+00	0.00E+00	0.00E+00	0.00E+00
	2950000000	1.71E-02	6.91E-02	6.43E-01	3.56E-01	0.00E+00	0.00E+00	0.00E+00	0.00E+00
	3000000000	1.01E-01	1.21E-01	5.96E-01	5.16E-01	0.00E+00	0.00E+00	0.00E+00	0.00E+00
	3050000000	2.11E-01	6.42E-02	4.98E-01	6.27E-01	0.00E+00	0.00E+00	0.00E+00	0.00E+00
	3100000000	2.27E-01	-6.09E-02	3.62E-01	7.37E-01	0.00E+00	0.00E+00	0.00E+00	0.00E+00
	3150000000	1.38E-01	-1.39E-01	2.35E-01	8.20E-01	0.00E+00	0.00E+00	0.00E+00	0.00E+00
	3200000000	4.52E-02	-1.08E-01	9.43E-02	8.46E-01	0.00E+00	0.00E+00	0.00E+00	0.00E+00
	3250000000	2.87E-02	-3.35E-02	-7.05E-02	8.34E-01	0.00E+00	0.00E+00	0.00E+00	0.00E+00
	3300000000	6.18E-02	7.01E-03	-2.32E-01	8.01E-01	0.00E+00	0.00E+00	0.00E+00	0.00E+00
	3350000000	9.08E-02	1.36E-02	-3.76E-01	7.35E-01	0.00E+00	0.00E+00	0.00E+00	0.00E+00
	3400000000	9.44E-02	2.94E-02	-4.91E-01	6.51E-01	0.00E+00	0.00E+00	0.00E+00	0.00E+00
	3450000000	1.83E-01	9.43E-02	-5.16E-01	5.06E-01	0.00E+00	0.00E+00	0.00E+00	0.00E+00
	3500000000	2.75E-01	-8.28E-03	-5.80E-01	2.76E-01	0.00E+00	0.00E+00	0.00E+00	0.00E+00
	3550000000	2.64E-01	-1.52E-01	-6.55E-01	2.71E-02	0.00E+00	0.00E+00	0.00E+00	0.00E+00
	3600000000	1.45E-01	-1.94E-01	-7.26E-01	-1.44E-01	0.00E+00	0.00E+00	0.00E+00	0.00E+00
	3650000000	7.67E-02	-1.68E-01	-7.15E-01	-3.02E-01	0.00E+00	0.00E+00	0.00E+00	0.00E+00
	3700000000	2.52E-02	-1.33E-01	-6.61E-01	-4.75E-01	0.00E+00	0.00E+00	0.00E+00	0.00E+00
	3750000000	-1.08E-02	-6.26E-02	-5.89E-01	-6.25E-01	0.00E+00	0.00E+00	0.00E+00	0.00E+00
	3800000000	1.82E-02	1.98E-02	-4.78E-01	-7.27E-01	0.00E+00	0.00E+00	0.00E+00	0.00E+00
	3850000000	8.16E-02	3.67E-02	-3.13E-01	-8.02E-01	0.00E+00	0.00E+00	0.00E+00	0.00E+00
	3900000000	9.64E-02	3.47E-02	-1.35E-01	-8.63E-01	0.00E+00	0.00E+00	0.00E+00	0.00E+00
	3950000000	1.33E-01	8.72E-02	3.26E-02	-8.61E-01	0.00E+00	0.00E+00	0.00E+00	0.00E+00
	4000000000	2.73E-01	8.49E-02	2.39E-01	-8.12E-01	0.00E+00	0.00E+00	0.00E+00	0.00E+00
	4050000000	3.81E-01	-7.90E-02	4.44E-01	-7.60E-01	0.00E+00	0.00E+00	0.00E+00	0.00E+00
	4100000000	3.08E-01	-2.95E-01	5.90E-01	-6.83E-01	0.00E+00	0.00E+00	0.00E+00	0.00E+00
	4150000000	8.97E-02	-3.77E-01	7.19E-01	-5.35E-01	0.00E+00	0.00E+00	0.00E+00	0.00E+00
	4200000000	-9.07E-02	-2.74E-01	8.48E-01	-3.82E-01	0.00E+00	0.00E+00	0.00E+00	0.00E+00
	4250000000	-1.35E-01	-1.38E-01	9.11E-01	-2.36E-01	0.00E+00	0.00E+00	0.00E+00	0.00E+00
	4300000000	-1.52E-01	-3.30E-02	9.12E-01	-5.00E-02	0.00E+00	0.00E+00	0.00E+00	0.00E+00
	4350000000	-1.26E-01	1.40E-01	8.95E-01	1.33E-01	0.00E+00	0.00E+00	0.00E+00	0.00E+00
	4400000000	9.40E-02	2.84E-01	8.17E-01	2.99E-01	0.00E+00	0.00E+00	0.00E+00	0.00E+00
	4450000000	3.82E-01	1.75E-01	6.89E-01	4.72E-01	0.00E+00	0.00E+00	0.00E+00	0.00E+00
	4500000000	4.70E-01	-1.19E-01	5.50E-01	6.35E-01	0.00E+00	0.00E+00	0.00E+00	0.00E+00
	4550000000	3.15E-01	-3.44E-01	3.84E-01	7.41E-01	0.00E+00	0.00E+00	0.00E+00	0.00E+00
	4600000000	1.09E-01	-3.53E-01	1.82E-01	8.29E-01	0.00E+00	0.00E+00	0.00E+00	0.00E+00
	4650000000	3.36E-02	-3.05E-01	-1.80E-02	8.72E-01	0.00E+00	0.00E+00	0.00E+00	0.00E+00
	4700000000	-6.85E-02	-2.42E-01	-2.48E-01	8.83E-01	0.00E+00	0.00E+00	0.00E+00	0.00E+00
	4750000000	-1.12E-01	-1.64E-01	-4.31E-01	8.16E-01	0.00E+00	0.00E+00	0.00E+00	0.00E+00
	4800000000	-1.34E-01	4.62E-03	-6.91E-01	7.31E-01	0.00E+00	0.00E+00	0.00E+00	0.00E+00
	4850000000	5.58E-02	1.39E-01	-9.29E-01	7.04E-01	0.00E+00	0.00E+00	0.00E+00	0.00E+00
	4900000000	2.52E-01	9.10E-03	-1.04E+00	6.68E-01	0.00E+00	0.00E+00	0.00E+00	0.00E+00
	4950000000	1.98E-01	-1.88E-01	-1.05E+00	5.36E-01	0.00E+00	0.00E+00	0.00E+00	0.00E+00
	5000000000	2.02E-02	-1.66E-01	-1.07E+00	3.48E-01	0.00E+00	0.00E+00	0.00E+00	0.00E+00
	5050000000	4.91E-02	8.11E-03	-1.08E+00	6.01E-02	0.00E+00	0.00E+00	0.00E+00	0.00E+00
	5100000000	2.47E-01	-2.00E-02	-1.08E+00	-3.99E-02	0.00E+00	0.00E+00	0.00E+00	0.00E+00
	5150000000	2.68E-01	-2.42E-01	-9.92E-01	-2.09E-01	0.00E+00	0.00E+00	0.00E+00	0.00E+00
	5200000000	6.93E-02	-3.44E-01	-8.72E-01	-3.78E-01	0.00E+00	0.00E+00	0.00E+00	0.00E+00
	5250000000	-7.75E-02	-2.28E-01	-7.43E-01	-5.46E-01	0.00E+00	0.00E+00	0.00E+00	0.00E+00
	5300000000	-3.56E-02	-1.44E-01	-5.98E-01	-6.90E-01	0.00E+00	0.00E+00	0.00E+00	0.00E+00
	5350000000	-5.42E-02	-1.87E-01	-4.46E-01	-7.48E-01	0.00E+00	0.00E+00	0.00E+00	0.00E+00
	5400000000	-1.60E-01	-1.14E-01	-2.35E-01	-7.99E-01	0.00E+00	0.00E+00	0.00E+00	0.00E+00
	5450000000	-1.02E-01	7.31E-02	-5.79E-02	-8.45E-01	0.00E+00	0.00E+00	0.00E+00	0.00E+00
	5500000000	1.21E-01	6.68E-02	7.61E-02	-8.06E-01	0.00E+00	0.00E+00	0.00E+00	0.00E+00
	5550000000	1.82E-01	-1.27E-01	2.49E-01	-6.89E-01	0.00E+00	0.00E+00	0.00E+00	0.00E+00
	5600000000	4.38E-02	-2.00E-01	4.05E-01	-5.58E-01	0.00E+00	0.00E+00	0.00E+00	0.00E+00
	5650000000	3.80E-02	-1.34E-01	5.57E-01	-4.05E-01	0.00E+00	0.00E+00	0.00E+00	0.00E+00
	5700000000	8.75E-02	-1.42E-01	6.66E-01	-2.67E-01	0.00E+00	0.00E+00	0.00E+00	0.00E+00
	5750000000	1.24E-01	-2.28E-01	7.15E-01	-1.07E-01	0.00E+00	0.00E+00	0.00E+00	0.00E+00
	5800000000	5.68E-02	-3.23E-01	7.34E-01	6.26E-02	0.00E+00	0.00E+00	0.00E+00	0.00E+00
	5850000000	-6.32E-02	-3.19E-01	7.02E-01	2.28E-01	0.00E+00	0.00E+00	0.00E+00	0.00E+00
	5900000000	-8.74E-02	-2.22E-01	6.57E-01	3.94E-01	0.00E+00	0.00E+00	0.00E+00	0.00E+00
	5950000000	-1.71E-02	-2.32E-01	5.93E-01	5.04E-01	0.00E+00	0.00E+00	0.00E+00	0.00E+00
	6000000000	-1.28E-01	-2.71E-01	7.46E-01	4.83E-02	0.00E+00	0.00E+00	0.00E+00	0.00E+00
