! NanoVNA-App									
! Date: 2024-03-21 14:25:36									
! Start: 1GHz Stop: 6GHz Points: 101									
! S-Parameter data: F S11 S21 S12 S22									
# Hz S RI R 50									
!	Frequency	S11_Real	S11_Imag	S21_Real	S21_Imag	S12_Real	S12_Imag	S22_Real	S22_Imag
	1000000000	1.21E-01	-2.32E-02	-5.57E-01	-8.76E-01	0.00E+00	0.00E+00	0.00E+00	0.00E+00
	1050000000	5.22E-02	-2.19E-02	-3.76E-01	-9.63E-01	0.00E+00	0.00E+00	0.00E+00	0.00E+00
	1100000000	5.00E-02	-1.07E-02	-1.68E-01	-1.02E+00	0.00E+00	0.00E+00	0.00E+00	0.00E+00
	1150000000	3.04E-02	-4.67E-02	3.58E-02	-1.03E+00	0.00E+00	0.00E+00	0.00E+00	0.00E+00
	1200000000	-5.03E-02	-3.68E-02	2.42E-01	-9.89E-01	0.00E+00	0.00E+00	0.00E+00	0.00E+00
	1250000000	-7.81E-02	6.64E-02	4.48E-01	-9.09E-01	0.00E+00	0.00E+00	0.00E+00	0.00E+00
	1300000000	1.50E-02	1.35E-01	6.29E-01	-8.02E-01	0.00E+00	0.00E+00	0.00E+00	0.00E+00
	1350000000	1.00E-01	6.55E-02	7.70E-01	-6.56E-01	0.00E+00	0.00E+00	0.00E+00	0.00E+00
	1400000000	7.30E-02	4.62E-03	9.01E-01	-4.85E-01	0.00E+00	0.00E+00	0.00E+00	0.00E+00
	1450000000	1.74E-02	2.25E-02	9.73E-01	-3.01E-01	0.00E+00	0.00E+00	0.00E+00	0.00E+00
	1500000000	5.30E-02	6.45E-02	1.00E+00	-1.02E-01	0.00E+00	0.00E+00	0.00E+00	0.00E+00
	1550000000	9.63E-02	6.19E-03	9.91E-01	9.94E-02	0.00E+00	0.00E+00	0.00E+00	0.00E+00
	1600000000	1.39E-02	-5.72E-02	9.43E-01	2.90E-01	0.00E+00	0.00E+00	0.00E+00	0.00E+00
	1650000000	-9.25E-02	3.69E-02	8.60E-01	4.63E-01	0.00E+00	0.00E+00	0.00E+00	0.00E+00
	1700000000	-2.42E-02	1.96E-01	7.31E-01	6.04E-01	0.00E+00	0.00E+00	0.00E+00	0.00E+00
	1750000000	1.60E-01	1.96E-01	5.75E-01	7.36E-01	0.00E+00	0.00E+00	0.00E+00	0.00E+00
	1800000000	2.36E-01	4.15E-02	4.23E-01	8.45E-01	0.00E+00	0.00E+00	0.00E+00	0.00E+00
	1850000000	1.52E-01	-7.19E-02	2.69E-01	9.00E-01	0.00E+00	0.00E+00	0.00E+00	0.00E+00
	1900000000	6.40E-02	-5.40E-02	1.24E-01	9.15E-01	0.00E+00	0.00E+00	0.00E+00	0.00E+00
	1950000000	5.40E-02	-2.00E-02	6.75E-03	8.92E-01	0.00E+00	0.00E+00	0.00E+00	0.00E+00
	2000000000	7.72E-02	-2.14E-02	-4.68E-02	8.10E-01	0.00E+00	0.00E+00	0.00E+00	0.00E+00
	2050000000	6.09E-02	-1.93E-01	-4.03E-02	5.62E-01	0.00E+00	0.00E+00	0.00E+00	0.00E+00
	2100000000	-3.93E-01	-4.21E-02	-2.83E-01	2.02E-01	0.00E+00	0.00E+00	0.00E+00	0.00E+00
	2150000000	-1.96E-01	4.65E-01	-5.00E-01	6.59E-02	0.00E+00	0.00E+00	0.00E+00	0.00E+00
	2200000000	2.60E-01	4.84E-01	-6.03E-01	-5.13E-02	0.00E+00	0.00E+00	0.00E+00	0.00E+00
	2250000000	5.11E-01	1.84E-01	-6.40E-01	-1.63E-01	0.00E+00	0.00E+00	0.00E+00	0.00E+00
	2300000000	4.63E-01	-1.59E-01	-6.13E-01	-2.71E-01	0.00E+00	0.00E+00	0.00E+00	0.00E+00
	2350000000	2.15E-01	-3.47E-01	-5.46E-01	-3.79E-01	0.00E+00	0.00E+00	0.00E+00	0.00E+00
	2400000000	-7.11E-02	-3.17E-01	-4.61E-01	-4.75E-01	0.00E+00	0.00E+00	0.00E+00	0.00E+00
	2450000000	-2.39E-01	-9.10E-02	-3.72E-01	-5.35E-01	0.00E+00	0.00E+00	0.00E+00	0.00E+00
	2500000000	-1.33E-01	1.27E-01	-3.06E-01	-5.06E-01	0.00E+00	0.00E+00	0.00E+00	0.00E+00
	2550000000	-1.66E-01	1.35E-01	-4.16E-02	-3.45E-01	0.00E+00	0.00E+00	0.00E+00	0.00E+00
	2600000000	3.70E-02	3.79E-01	2.09E-01	-4.04E-01	0.00E+00	0.00E+00	0.00E+00	0.00E+00
	2650000000	3.38E-01	2.70E-01	3.51E-01	-3.85E-01	0.00E+00	0.00E+00	0.00E+00	0.00E+00
	2700000000	4.16E-01	-1.17E-02	4.80E-01	-3.08E-01	0.00E+00	0.00E+00	0.00E+00	0.00E+00
	2750000000	2.63E-01	-2.20E-01	5.86E-01	-1.98E-01	0.00E+00	0.00E+00	0.00E+00	0.00E+00
	2800000000	4.70E-02	-2.31E-01	6.71E-01	-7.18E-02	0.00E+00	0.00E+00	0.00E+00	0.00E+00
	2850000000	-7.41E-02	-1.05E-01	7.22E-01	4.39E-02	0.00E+00	0.00E+00	0.00E+00	0.00E+00
	2900000000	-5.83E-02	3.25E-02	7.06E-01	1.70E-01	0.00E+00	0.00E+00	0.00E+00	0.00E+00
	2950000000	8.96E-03	8.61E-02	6.34E-01	3.41E-01	0.00E+00	0.00E+00	0.00E+00	0.00E+00
	3000000000	1.08E-01	1.34E-01	5.90E-01	4.96E-01	0.00E+00	0.00E+00	0.00E+00	0.00E+00
	3050000000	2.24E-01	6.62E-02	4.93E-01	6.12E-01	0.00E+00	0.00E+00	0.00E+00	0.00E+00
	3100000000	2.36E-01	-6.76E-02	3.64E-01	7.22E-01	0.00E+00	0.00E+00	0.00E+00	0.00E+00
	3150000000	1.41E-01	-1.48E-01	2.37E-01	8.08E-01	0.00E+00	0.00E+00	0.00E+00	0.00E+00
	3200000000	4.10E-02	-1.16E-01	1.02E-01	8.34E-01	0.00E+00	0.00E+00	0.00E+00	0.00E+00
	3250000000	2.15E-02	-3.55E-02	-6.23E-02	8.24E-01	0.00E+00	0.00E+00	0.00E+00	0.00E+00
	3300000000	5.78E-02	1.16E-02	-2.25E-01	7.91E-01	0.00E+00	0.00E+00	0.00E+00	0.00E+00
	3350000000	9.13E-02	1.68E-02	-3.66E-01	7.29E-01	0.00E+00	0.00E+00	0.00E+00	0.00E+00
	3400000000	9.55E-02	3.02E-02	-4.81E-01	6.49E-01	0.00E+00	0.00E+00	0.00E+00	0.00E+00
	3450000000	1.84E-01	9.74E-02	-5.06E-01	5.07E-01	0.00E+00	0.00E+00	0.00E+00	0.00E+00
	3500000000	2.78E-01	-6.42E-03	-5.69E-01	2.77E-01	0.00E+00	0.00E+00	0.00E+00	0.00E+00
	3550000000	2.68E-01	-1.51E-01	-6.44E-01	3.31E-02	0.00E+00	0.00E+00	0.00E+00	0.00E+00
	3600000000	1.49E-01	-1.96E-01	-7.16E-01	-1.37E-01	0.00E+00	0.00E+00	0.00E+00	0.00E+00
	3650000000	7.74E-02	-1.71E-01	-7.07E-01	-2.95E-01	0.00E+00	0.00E+00	0.00E+00	0.00E+00
	3700000000	2.37E-02	-1.35E-01	-6.54E-01	-4.68E-01	0.00E+00	0.00E+00	0.00E+00	0.00E+00
	3750000000	-1.39E-02	-6.30E-02	-5.84E-01	-6.18E-01	0.00E+00	0.00E+00	0.00E+00	0.00E+00
	3800000000	1.58E-02	2.12E-02	-4.77E-01	-7.17E-01	0.00E+00	0.00E+00	0.00E+00	0.00E+00
	3850000000	8.01E-02	4.07E-02	-3.14E-01	-7.92E-01	0.00E+00	0.00E+00	0.00E+00	0.00E+00
	3900000000	9.78E-02	3.99E-02	-1.36E-01	-8.53E-01	0.00E+00	0.00E+00	0.00E+00	0.00E+00
	3950000000	1.40E-01	8.87E-02	2.96E-02	-8.52E-01	0.00E+00	0.00E+00	0.00E+00	0.00E+00
	4000000000	2.76E-01	8.12E-02	2.35E-01	-8.03E-01	0.00E+00	0.00E+00	0.00E+00	0.00E+00
	4050000000	3.81E-01	-8.34E-02	4.37E-01	-7.56E-01	0.00E+00	0.00E+00	0.00E+00	0.00E+00
	4100000000	3.05E-01	-2.97E-01	5.84E-01	-6.80E-01	0.00E+00	0.00E+00	0.00E+00	0.00E+00
	4150000000	8.65E-02	-3.77E-01	7.14E-01	-5.34E-01	0.00E+00	0.00E+00	0.00E+00	0.00E+00
	4200000000	-9.32E-02	-2.72E-01	8.43E-01	-3.83E-01	0.00E+00	0.00E+00	0.00E+00	0.00E+00
	4250000000	-1.36E-01	-1.34E-01	9.07E-01	-2.38E-01	0.00E+00	0.00E+00	0.00E+00	0.00E+00
	4300000000	-1.51E-01	-3.06E-02	9.09E-01	-5.29E-02	0.00E+00	0.00E+00	0.00E+00	0.00E+00
	4350000000	-1.23E-01	1.40E-01	8.93E-01	1.31E-01	0.00E+00	0.00E+00	0.00E+00	0.00E+00
	4400000000	9.48E-02	2.81E-01	8.15E-01	2.96E-01	0.00E+00	0.00E+00	0.00E+00	0.00E+00
	4450000000	3.81E-01	1.71E-01	6.88E-01	4.69E-01	0.00E+00	0.00E+00	0.00E+00	0.00E+00
	4500000000	4.68E-01	-1.22E-01	5.49E-01	6.33E-01	0.00E+00	0.00E+00	0.00E+00	0.00E+00
	4550000000	3.11E-01	-3.46E-01	3.85E-01	7.39E-01	0.00E+00	0.00E+00	0.00E+00	0.00E+00
	4600000000	1.06E-01	-3.52E-01	1.84E-01	8.30E-01	0.00E+00	0.00E+00	0.00E+00	0.00E+00
	4650000000	3.63E-02	-3.02E-01	-1.03E-02	8.70E-01	0.00E+00	0.00E+00	0.00E+00	0.00E+00
	4700000000	-6.63E-02	-2.42E-01	-2.42E-01	8.81E-01	0.00E+00	0.00E+00	0.00E+00	0.00E+00
	4750000000	-1.10E-01	-1.66E-01	-4.25E-01	8.17E-01	0.00E+00	0.00E+00	0.00E+00	0.00E+00
	4800000000	-1.31E-01	1.69E-03	-6.82E-01	7.37E-01	0.00E+00	0.00E+00	0.00E+00	0.00E+00
	4850000000	5.76E-02	1.34E-01	-9.20E-01	7.12E-01	0.00E+00	0.00E+00	0.00E+00	0.00E+00
	4900000000	2.51E-01	3.84E-03	-1.03E+00	6.75E-01	0.00E+00	0.00E+00	0.00E+00	0.00E+00
	4950000000	1.94E-01	-1.91E-01	-1.04E+00	5.45E-01	0.00E+00	0.00E+00	0.00E+00	0.00E+00
	5000000000	1.77E-02	-1.64E-01	-1.06E+00	3.57E-01	0.00E+00	0.00E+00	0.00E+00	0.00E+00
	5050000000	5.11E-02	1.12E-02	-1.08E+00	7.45E-02	0.00E+00	0.00E+00	0.00E+00	0.00E+00
	5100000000	2.52E-01	-1.97E-02	-1.08E+00	-2.55E-02	0.00E+00	0.00E+00	0.00E+00	0.00E+00
	5150000000	2.72E-01	-2.42E-01	-9.88E-01	-1.96E-01	0.00E+00	0.00E+00	0.00E+00	0.00E+00
	5200000000	7.00E-02	-3.46E-01	-8.72E-01	-3.65E-01	0.00E+00	0.00E+00	0.00E+00	0.00E+00
	5250000000	-7.53E-02	-2.33E-01	-7.44E-01	-5.38E-01	0.00E+00	0.00E+00	0.00E+00	0.00E+00
	5300000000	-3.61E-02	-1.47E-01	-6.03E-01	-6.77E-01	0.00E+00	0.00E+00	0.00E+00	0.00E+00
	5350000000	-5.72E-02	-1.86E-01	-4.56E-01	-7.36E-01	0.00E+00	0.00E+00	0.00E+00	0.00E+00
	5400000000	-1.61E-01	-1.10E-01	-2.41E-01	-7.94E-01	0.00E+00	0.00E+00	0.00E+00	0.00E+00
	5450000000	-9.83E-02	7.32E-02	-6.52E-02	-8.41E-01	0.00E+00	0.00E+00	0.00E+00	0.00E+00
	5500000000	1.25E-01	6.65E-02	6.57E-02	-8.04E-01	0.00E+00	0.00E+00	0.00E+00	0.00E+00
	5550000000	1.84E-01	-1.29E-01	2.37E-01	-6.89E-01	0.00E+00	0.00E+00	0.00E+00	0.00E+00
	5600000000	4.45E-02	-2.02E-01	3.98E-01	-5.58E-01	0.00E+00	0.00E+00	0.00E+00	0.00E+00
	5650000000	3.70E-02	-1.36E-01	5.46E-01	-4.13E-01	0.00E+00	0.00E+00	0.00E+00	0.00E+00
	5700000000	8.75E-02	-1.44E-01	6.57E-01	-2.77E-01	0.00E+00	0.00E+00	0.00E+00	0.00E+00
	5750000000	1.24E-01	-2.29E-01	7.09E-01	-1.14E-01	0.00E+00	0.00E+00	0.00E+00	0.00E+00
	5800000000	5.47E-02	-3.23E-01	7.32E-01	5.02E-02	0.00E+00	0.00E+00	0.00E+00	0.00E+00
	5850000000	-6.33E-02	-3.17E-01	7.01E-01	2.18E-01	0.00E+00	0.00E+00	0.00E+00	0.00E+00
	5900000000	-8.05E-02	-2.22E-01	6.58E-01	3.83E-01	0.00E+00	0.00E+00	0.00E+00	0.00E+00
	5950000000	-1.08E-02	-2.35E-01	5.94E-01	4.92E-01	0.00E+00	0.00E+00	0.00E+00	0.00E+00
	6000000000	-1.22E-01	-2.77E-01	7.41E-01	4.02E-02	0.00E+00	0.00E+00	0.00E+00	0.00E+00
