! NanoVNA-App									
! Date: 2024-03-21 13:11:51									
! Start: 1GHz Stop: 6GHz Points: 101									
! S-Parameter data: F S11 S21 S12 S22									
# Hz S RI R 50									
!	Frequency	S11_Real	S11_Imag	S21_Real	S21_Imag	S12_Real	S12_Imag	S22_Real	S22_Imag
	1000000000	1.22E-01	-2.34E-02	-5.55E-01	-8.77E-01	0.00E+00	0.00E+00	0.00E+00	0.00E+00
	1050000000	5.25E-02	-2.23E-02	-3.75E-01	-9.64E-01	0.00E+00	0.00E+00	0.00E+00	0.00E+00
	1100000000	5.01E-02	-1.08E-02	-1.69E-01	-1.02E+00	0.00E+00	0.00E+00	0.00E+00	0.00E+00
	1150000000	3.04E-02	-4.64E-02	3.72E-02	-1.03E+00	0.00E+00	0.00E+00	0.00E+00	0.00E+00
	1200000000	-5.01E-02	-3.62E-02	2.44E-01	-9.88E-01	0.00E+00	0.00E+00	0.00E+00	0.00E+00
	1250000000	-7.76E-02	6.72E-02	4.50E-01	-9.09E-01	0.00E+00	0.00E+00	0.00E+00	0.00E+00
	1300000000	1.61E-02	1.36E-01	6.29E-01	-8.02E-01	0.00E+00	0.00E+00	0.00E+00	0.00E+00
	1350000000	1.01E-01	6.57E-02	7.71E-01	-6.53E-01	0.00E+00	0.00E+00	0.00E+00	0.00E+00
	1400000000	7.39E-02	4.70E-03	9.01E-01	-4.84E-01	0.00E+00	0.00E+00	0.00E+00	0.00E+00
	1450000000	1.82E-02	2.21E-02	9.73E-01	-3.00E-01	0.00E+00	0.00E+00	0.00E+00	0.00E+00
	1500000000	5.28E-02	6.36E-02	1.00E+00	-1.02E-01	0.00E+00	0.00E+00	0.00E+00	0.00E+00
	1550000000	9.52E-02	5.78E-03	9.90E-01	1.01E-01	0.00E+00	0.00E+00	0.00E+00	0.00E+00
	1600000000	1.21E-02	-5.59E-02	9.45E-01	2.93E-01	0.00E+00	0.00E+00	0.00E+00	0.00E+00
	1650000000	-9.31E-02	3.97E-02	8.59E-01	4.62E-01	0.00E+00	0.00E+00	0.00E+00	0.00E+00
	1700000000	-2.23E-02	1.98E-01	7.30E-01	6.03E-01	0.00E+00	0.00E+00	0.00E+00	0.00E+00
	1750000000	1.63E-01	1.96E-01	5.74E-01	7.35E-01	0.00E+00	0.00E+00	0.00E+00	0.00E+00
	1800000000	2.38E-01	3.99E-02	4.22E-01	8.43E-01	0.00E+00	0.00E+00	0.00E+00	0.00E+00
	1850000000	1.52E-01	-7.50E-02	2.69E-01	8.97E-01	0.00E+00	0.00E+00	0.00E+00	0.00E+00
	1900000000	6.18E-02	-5.65E-02	1.23E-01	9.10E-01	0.00E+00	0.00E+00	0.00E+00	0.00E+00
	1950000000	5.03E-02	-1.96E-02	7.12E-03	8.90E-01	0.00E+00	0.00E+00	0.00E+00	0.00E+00
	2000000000	7.50E-02	-1.83E-02	-4.94E-02	8.06E-01	0.00E+00	0.00E+00	0.00E+00	0.00E+00
	2050000000	6.21E-02	-1.92E-01	-3.84E-02	5.60E-01	0.00E+00	0.00E+00	0.00E+00	0.00E+00
	2100000000	-3.98E-01	-3.98E-02	-2.78E-01	2.01E-01	0.00E+00	0.00E+00	0.00E+00	0.00E+00
	2150000000	-1.91E-01	4.68E-01	-4.97E-01	6.39E-02	0.00E+00	0.00E+00	0.00E+00	0.00E+00
	2200000000	2.66E-01	4.82E-01	-5.98E-01	-5.33E-02	0.00E+00	0.00E+00	0.00E+00	0.00E+00
	2250000000	5.13E-01	1.77E-01	-6.34E-01	-1.64E-01	0.00E+00	0.00E+00	0.00E+00	0.00E+00
	2300000000	4.60E-01	-1.66E-01	-6.07E-01	-2.70E-01	0.00E+00	0.00E+00	0.00E+00	0.00E+00
	2350000000	2.07E-01	-3.52E-01	-5.38E-01	-3.78E-01	0.00E+00	0.00E+00	0.00E+00	0.00E+00
	2400000000	-8.18E-02	-3.10E-01	-4.51E-01	-4.71E-01	0.00E+00	0.00E+00	0.00E+00	0.00E+00
	2450000000	-2.39E-01	-7.83E-02	-3.62E-01	-5.32E-01	0.00E+00	0.00E+00	0.00E+00	0.00E+00
	2500000000	-1.21E-01	1.32E-01	-2.95E-01	-5.00E-01	0.00E+00	0.00E+00	0.00E+00	0.00E+00
	2550000000	-1.56E-01	1.34E-01	-2.63E-02	-3.41E-01	0.00E+00	0.00E+00	0.00E+00	0.00E+00
	2600000000	4.44E-02	3.68E-01	2.22E-01	-4.01E-01	0.00E+00	0.00E+00	0.00E+00	0.00E+00
	2650000000	3.33E-01	2.60E-01	3.64E-01	-3.79E-01	0.00E+00	0.00E+00	0.00E+00	0.00E+00
	2700000000	4.03E-01	-1.63E-02	4.89E-01	-3.03E-01	0.00E+00	0.00E+00	0.00E+00	0.00E+00
	2750000000	2.54E-01	-2.14E-01	5.98E-01	-1.91E-01	0.00E+00	0.00E+00	0.00E+00	0.00E+00
	2800000000	4.25E-02	-2.23E-01	6.89E-01	-6.90E-02	0.00E+00	0.00E+00	0.00E+00	0.00E+00
	2850000000	-6.51E-02	-9.63E-02	7.30E-01	5.36E-02	0.00E+00	0.00E+00	0.00E+00	0.00E+00
	2900000000	-4.70E-02	3.04E-02	7.13E-01	1.77E-01	0.00E+00	0.00E+00	0.00E+00	0.00E+00
	2950000000	1.48E-02	7.63E-02	6.40E-01	3.54E-01	0.00E+00	0.00E+00	0.00E+00	0.00E+00
	3000000000	1.03E-01	1.27E-01	5.93E-01	5.05E-01	0.00E+00	0.00E+00	0.00E+00	0.00E+00
	3050000000	2.16E-01	6.51E-02	4.98E-01	6.19E-01	0.00E+00	0.00E+00	0.00E+00	0.00E+00
	3100000000	2.31E-01	-6.37E-02	3.63E-01	7.30E-01	0.00E+00	0.00E+00	0.00E+00	0.00E+00
	3150000000	1.40E-01	-1.42E-01	2.35E-01	8.15E-01	0.00E+00	0.00E+00	0.00E+00	0.00E+00
	3200000000	4.44E-02	-1.11E-01	9.85E-02	8.41E-01	0.00E+00	0.00E+00	0.00E+00	0.00E+00
	3250000000	2.58E-02	-3.54E-02	-6.70E-02	8.30E-01	0.00E+00	0.00E+00	0.00E+00	0.00E+00
	3300000000	5.90E-02	7.59E-03	-2.26E-01	7.97E-01	0.00E+00	0.00E+00	0.00E+00	0.00E+00
	3350000000	8.97E-02	1.54E-02	-3.73E-01	7.31E-01	0.00E+00	0.00E+00	0.00E+00	0.00E+00
	3400000000	9.47E-02	3.04E-02	-4.86E-01	6.50E-01	0.00E+00	0.00E+00	0.00E+00	0.00E+00
	3450000000	1.84E-01	9.43E-02	-5.11E-01	5.08E-01	0.00E+00	0.00E+00	0.00E+00	0.00E+00
	3500000000	2.75E-01	-6.12E-03	-5.77E-01	2.78E-01	0.00E+00	0.00E+00	0.00E+00	0.00E+00
	3550000000	2.69E-01	-1.50E-01	-6.49E-01	3.22E-02	0.00E+00	0.00E+00	0.00E+00	0.00E+00
	3600000000	1.49E-01	-1.96E-01	-7.20E-01	-1.40E-01	0.00E+00	0.00E+00	0.00E+00	0.00E+00
	3650000000	7.65E-02	-1.71E-01	-7.10E-01	-2.98E-01	0.00E+00	0.00E+00	0.00E+00	0.00E+00
	3700000000	2.27E-02	-1.35E-01	-6.55E-01	-4.72E-01	0.00E+00	0.00E+00	0.00E+00	0.00E+00
	3750000000	-1.42E-02	-6.21E-02	-5.86E-01	-6.21E-01	0.00E+00	0.00E+00	0.00E+00	0.00E+00
	3800000000	1.67E-02	2.28E-02	-4.77E-01	-7.21E-01	0.00E+00	0.00E+00	0.00E+00	0.00E+00
	3850000000	8.13E-02	4.05E-02	-3.10E-01	-7.98E-01	0.00E+00	0.00E+00	0.00E+00	0.00E+00
	3900000000	1.00E-01	3.64E-02	-1.35E-01	-8.58E-01	0.00E+00	0.00E+00	0.00E+00	0.00E+00
	3950000000	1.37E-01	8.57E-02	3.26E-02	-8.58E-01	0.00E+00	0.00E+00	0.00E+00	0.00E+00
	4000000000	2.73E-01	8.19E-02	2.39E-01	-8.07E-01	0.00E+00	0.00E+00	0.00E+00	0.00E+00
	4050000000	3.80E-01	-8.12E-02	4.43E-01	-7.59E-01	0.00E+00	0.00E+00	0.00E+00	0.00E+00
	4100000000	3.06E-01	-2.95E-01	5.87E-01	-6.83E-01	0.00E+00	0.00E+00	0.00E+00	0.00E+00
	4150000000	8.74E-02	-3.76E-01	7.15E-01	-5.37E-01	0.00E+00	0.00E+00	0.00E+00	0.00E+00
	4200000000	-9.10E-02	-2.72E-01	8.47E-01	-3.80E-01	0.00E+00	0.00E+00	0.00E+00	0.00E+00
	4250000000	-1.34E-01	-1.36E-01	9.10E-01	-2.39E-01	0.00E+00	0.00E+00	0.00E+00	0.00E+00
	4300000000	-1.51E-01	-3.32E-02	9.12E-01	-5.03E-02	0.00E+00	0.00E+00	0.00E+00	0.00E+00
	4350000000	-1.23E-01	1.40E-01	8.95E-01	1.31E-01	0.00E+00	0.00E+00	0.00E+00	0.00E+00
	4400000000	9.40E-02	2.81E-01	8.18E-01	2.97E-01	0.00E+00	0.00E+00	0.00E+00	0.00E+00
	4450000000	3.80E-01	1.73E-01	6.87E-01	4.73E-01	0.00E+00	0.00E+00	0.00E+00	0.00E+00
	4500000000	4.68E-01	-1.20E-01	5.52E-01	6.31E-01	0.00E+00	0.00E+00	0.00E+00	0.00E+00
	4550000000	3.12E-01	-3.45E-01	3.86E-01	7.39E-01	0.00E+00	0.00E+00	0.00E+00	0.00E+00
	4600000000	1.08E-01	-3.52E-01	1.82E-01	8.30E-01	0.00E+00	0.00E+00	0.00E+00	0.00E+00
	4650000000	3.50E-02	-3.05E-01	-1.45E-02	8.71E-01	0.00E+00	0.00E+00	0.00E+00	0.00E+00
	4700000000	-6.77E-02	-2.42E-01	-2.44E-01	8.83E-01	0.00E+00	0.00E+00	0.00E+00	0.00E+00
	4750000000	-1.11E-01	-1.66E-01	-4.26E-01	8.18E-01	0.00E+00	0.00E+00	0.00E+00	0.00E+00
	4800000000	-1.33E-01	2.44E-03	-6.86E-01	7.35E-01	0.00E+00	0.00E+00	0.00E+00	0.00E+00
	4850000000	5.63E-02	1.37E-01	-9.23E-01	7.10E-01	0.00E+00	0.00E+00	0.00E+00	0.00E+00
	4900000000	2.51E-01	7.15E-03	-1.03E+00	6.70E-01	0.00E+00	0.00E+00	0.00E+00	0.00E+00
	4950000000	1.97E-01	-1.88E-01	-1.04E+00	5.41E-01	0.00E+00	0.00E+00	0.00E+00	0.00E+00
	5000000000	1.94E-02	-1.64E-01	-1.06E+00	3.54E-01	0.00E+00	0.00E+00	0.00E+00	0.00E+00
	5050000000	5.05E-02	8.60E-03	-1.08E+00	6.36E-02	0.00E+00	0.00E+00	0.00E+00	0.00E+00
	5100000000	2.49E-01	-2.09E-02	-1.08E+00	-3.07E-02	0.00E+00	0.00E+00	0.00E+00	0.00E+00
	5150000000	2.70E-01	-2.42E-01	-9.89E-01	-2.05E-01	0.00E+00	0.00E+00	0.00E+00	0.00E+00
	5200000000	6.80E-02	-3.45E-01	-8.73E-01	-3.70E-01	0.00E+00	0.00E+00	0.00E+00	0.00E+00
	5250000000	-7.61E-02	-2.30E-01	-7.42E-01	-5.45E-01	0.00E+00	0.00E+00	0.00E+00	0.00E+00
	5300000000	-3.71E-02	-1.43E-01	-6.02E-01	-6.82E-01	0.00E+00	0.00E+00	0.00E+00	0.00E+00
	5350000000	-5.42E-02	-1.87E-01	-4.51E-01	-7.43E-01	0.00E+00	0.00E+00	0.00E+00	0.00E+00
	5400000000	-1.60E-01	-1.12E-01	-2.38E-01	-7.96E-01	0.00E+00	0.00E+00	0.00E+00	0.00E+00
	5450000000	-1.01E-01	7.28E-02	-5.75E-02	-8.44E-01	0.00E+00	0.00E+00	0.00E+00	0.00E+00
	5500000000	1.23E-01	6.61E-02	7.10E-02	-8.05E-01	0.00E+00	0.00E+00	0.00E+00	0.00E+00
	5550000000	1.82E-01	-1.30E-01	2.29E-01	-6.98E-01	0.00E+00	0.00E+00	0.00E+00	0.00E+00
	5600000000	4.45E-02	-2.01E-01	4.00E-01	-5.58E-01	0.00E+00	0.00E+00	0.00E+00	0.00E+00
	5650000000	3.78E-02	-1.34E-01	5.52E-01	-4.08E-01	0.00E+00	0.00E+00	0.00E+00	0.00E+00
	5700000000	8.80E-02	-1.43E-01	6.63E-01	-2.69E-01	0.00E+00	0.00E+00	0.00E+00	0.00E+00
	5750000000	1.23E-01	-2.29E-01	7.12E-01	-1.12E-01	0.00E+00	0.00E+00	0.00E+00	0.00E+00
	5800000000	5.83E-02	-3.24E-01	7.33E-01	5.95E-02	0.00E+00	0.00E+00	0.00E+00	0.00E+00
	5850000000	-6.43E-02	-3.19E-01	7.02E-01	2.20E-01	0.00E+00	0.00E+00	0.00E+00	0.00E+00
	5900000000	-8.40E-02	-2.23E-01	6.57E-01	3.89E-01	0.00E+00	0.00E+00	0.00E+00	0.00E+00
	5950000000	-1.46E-02	-2.34E-01	5.92E-01	5.00E-01	0.00E+00	0.00E+00	0.00E+00	0.00E+00
	6000000000	-1.27E-01	-2.73E-01	7.44E-01	4.16E-02	0.00E+00	0.00E+00	0.00E+00	0.00E+00
