! NanoVNA-App									
! Date: 2024-03-21 14:24:41									
! Start: 1GHz Stop: 6GHz Points: 101									
! S-Parameter data: F S11 S21 S12 S22									
# Hz S RI R 50									
!	Frequency	S11_Real	S11_Imag	S21_Real	S21_Imag	S12_Real	S12_Imag	S22_Real	S22_Imag
	1000000000	1.21E-01	-2.31E-02	-5.56E-01	-8.76E-01	0.00E+00	0.00E+00	0.00E+00	0.00E+00
	1050000000	5.22E-02	-2.22E-02	-3.75E-01	-9.64E-01	0.00E+00	0.00E+00	0.00E+00	0.00E+00
	1100000000	5.00E-02	-1.07E-02	-1.70E-01	-1.02E+00	0.00E+00	0.00E+00	0.00E+00	0.00E+00
	1150000000	3.04E-02	-4.67E-02	3.61E-02	-1.03E+00	0.00E+00	0.00E+00	0.00E+00	0.00E+00
	1200000000	-5.03E-02	-3.68E-02	2.43E-01	-9.89E-01	0.00E+00	0.00E+00	0.00E+00	0.00E+00
	1250000000	-7.81E-02	6.65E-02	4.48E-01	-9.10E-01	0.00E+00	0.00E+00	0.00E+00	0.00E+00
	1300000000	1.52E-02	1.35E-01	6.29E-01	-8.03E-01	0.00E+00	0.00E+00	0.00E+00	0.00E+00
	1350000000	1.00E-01	6.57E-02	7.71E-01	-6.55E-01	0.00E+00	0.00E+00	0.00E+00	0.00E+00
	1400000000	7.27E-02	4.70E-03	9.00E-01	-4.84E-01	0.00E+00	0.00E+00	0.00E+00	0.00E+00
	1450000000	1.73E-02	2.26E-02	9.74E-01	-3.00E-01	0.00E+00	0.00E+00	0.00E+00	0.00E+00
	1500000000	5.29E-02	6.45E-02	1.00E+00	-1.04E-01	0.00E+00	0.00E+00	0.00E+00	0.00E+00
	1550000000	9.61E-02	6.34E-03	9.91E-01	1.01E-01	0.00E+00	0.00E+00	0.00E+00	0.00E+00
	1600000000	1.38E-02	-5.71E-02	9.46E-01	2.93E-01	0.00E+00	0.00E+00	0.00E+00	0.00E+00
	1650000000	-9.24E-02	3.69E-02	8.58E-01	4.62E-01	0.00E+00	0.00E+00	0.00E+00	0.00E+00
	1700000000	-2.44E-02	1.95E-01	7.31E-01	6.05E-01	0.00E+00	0.00E+00	0.00E+00	0.00E+00
	1750000000	1.60E-01	1.96E-01	5.76E-01	7.37E-01	0.00E+00	0.00E+00	0.00E+00	0.00E+00
	1800000000	2.36E-01	4.13E-02	4.25E-01	8.45E-01	0.00E+00	0.00E+00	0.00E+00	0.00E+00
	1850000000	1.52E-01	-7.15E-02	2.69E-01	9.00E-01	0.00E+00	0.00E+00	0.00E+00	0.00E+00
	1900000000	6.44E-02	-5.42E-02	1.26E-01	9.16E-01	0.00E+00	0.00E+00	0.00E+00	0.00E+00
	1950000000	5.44E-02	-2.06E-02	8.46E-03	8.94E-01	0.00E+00	0.00E+00	0.00E+00	0.00E+00
	2000000000	7.65E-02	-2.23E-02	-4.80E-02	8.10E-01	0.00E+00	0.00E+00	0.00E+00	0.00E+00
	2050000000	5.94E-02	-1.93E-01	-3.98E-02	5.62E-01	0.00E+00	0.00E+00	0.00E+00	0.00E+00
	2100000000	-3.98E-01	-4.19E-02	-2.80E-01	2.04E-01	0.00E+00	0.00E+00	0.00E+00	0.00E+00
	2150000000	-1.94E-01	4.66E-01	-4.99E-01	6.67E-02	0.00E+00	0.00E+00	0.00E+00	0.00E+00
	2200000000	2.61E-01	4.82E-01	-6.02E-01	-5.07E-02	0.00E+00	0.00E+00	0.00E+00	0.00E+00
	2250000000	5.11E-01	1.82E-01	-6.39E-01	-1.61E-01	0.00E+00	0.00E+00	0.00E+00	0.00E+00
	2300000000	4.62E-01	-1.60E-01	-6.13E-01	-2.70E-01	0.00E+00	0.00E+00	0.00E+00	0.00E+00
	2350000000	2.13E-01	-3.46E-01	-5.44E-01	-3.79E-01	0.00E+00	0.00E+00	0.00E+00	0.00E+00
	2400000000	-7.28E-02	-3.15E-01	-4.59E-01	-4.73E-01	0.00E+00	0.00E+00	0.00E+00	0.00E+00
	2450000000	-2.38E-01	-8.96E-02	-3.72E-01	-5.35E-01	0.00E+00	0.00E+00	0.00E+00	0.00E+00
	2500000000	-1.32E-01	1.27E-01	-3.05E-01	-5.07E-01	0.00E+00	0.00E+00	0.00E+00	0.00E+00
	2550000000	-1.65E-01	1.34E-01	-4.14E-02	-3.45E-01	0.00E+00	0.00E+00	0.00E+00	0.00E+00
	2600000000	3.78E-02	3.78E-01	2.09E-01	-4.05E-01	0.00E+00	0.00E+00	0.00E+00	0.00E+00
	2650000000	3.37E-01	2.70E-01	3.55E-01	-3.85E-01	0.00E+00	0.00E+00	0.00E+00	0.00E+00
	2700000000	4.14E-01	-1.05E-02	4.80E-01	-3.05E-01	0.00E+00	0.00E+00	0.00E+00	0.00E+00
	2750000000	2.63E-01	-2.19E-01	5.87E-01	-1.99E-01	0.00E+00	0.00E+00	0.00E+00	0.00E+00
	2800000000	4.67E-02	-2.29E-01	6.72E-01	-7.36E-02	0.00E+00	0.00E+00	0.00E+00	0.00E+00
	2850000000	-7.26E-02	-1.05E-01	7.23E-01	4.42E-02	0.00E+00	0.00E+00	0.00E+00	0.00E+00
	2900000000	-5.75E-02	3.18E-02	7.07E-01	1.69E-01	0.00E+00	0.00E+00	0.00E+00	0.00E+00
	2950000000	8.66E-03	8.50E-02	6.35E-01	3.41E-01	0.00E+00	0.00E+00	0.00E+00	0.00E+00
	3000000000	1.07E-01	1.34E-01	5.92E-01	4.97E-01	0.00E+00	0.00E+00	0.00E+00	0.00E+00
	3050000000	2.22E-01	6.61E-02	4.96E-01	6.11E-01	0.00E+00	0.00E+00	0.00E+00	0.00E+00
	3100000000	2.36E-01	-6.69E-02	3.66E-01	7.21E-01	0.00E+00	0.00E+00	0.00E+00	0.00E+00
	3150000000	1.42E-01	-1.47E-01	2.39E-01	8.07E-01	0.00E+00	0.00E+00	0.00E+00	0.00E+00
	3200000000	4.21E-02	-1.16E-01	1.01E-01	8.35E-01	0.00E+00	0.00E+00	0.00E+00	0.00E+00
	3250000000	2.21E-02	-3.63E-02	-6.18E-02	8.24E-01	0.00E+00	0.00E+00	0.00E+00	0.00E+00
	3300000000	5.74E-02	1.01E-02	-2.20E-01	7.92E-01	0.00E+00	0.00E+00	0.00E+00	0.00E+00
	3350000000	9.06E-02	1.69E-02	-3.67E-01	7.29E-01	0.00E+00	0.00E+00	0.00E+00	0.00E+00
	3400000000	9.50E-02	3.08E-02	-4.81E-01	6.49E-01	0.00E+00	0.00E+00	0.00E+00	0.00E+00
	3450000000	1.85E-01	9.62E-02	-5.05E-01	5.09E-01	0.00E+00	0.00E+00	0.00E+00	0.00E+00
	3500000000	2.78E-01	-6.20E-03	-5.69E-01	2.81E-01	0.00E+00	0.00E+00	0.00E+00	0.00E+00
	3550000000	2.69E-01	-1.49E-01	-6.42E-01	3.55E-02	0.00E+00	0.00E+00	0.00E+00	0.00E+00
	3600000000	1.51E-01	-1.97E-01	-7.13E-01	-1.35E-01	0.00E+00	0.00E+00	0.00E+00	0.00E+00
	3650000000	7.71E-02	-1.73E-01	-7.05E-01	-2.93E-01	0.00E+00	0.00E+00	0.00E+00	0.00E+00
	3700000000	2.15E-02	-1.36E-01	-6.51E-01	-4.67E-01	0.00E+00	0.00E+00	0.00E+00	0.00E+00
	3750000000	-1.58E-02	-6.18E-02	-5.84E-01	-6.13E-01	0.00E+00	0.00E+00	0.00E+00	0.00E+00
	3800000000	1.60E-02	2.29E-02	-4.76E-01	-7.14E-01	0.00E+00	0.00E+00	0.00E+00	0.00E+00
	3850000000	8.05E-02	4.23E-02	-3.09E-01	-7.92E-01	0.00E+00	0.00E+00	0.00E+00	0.00E+00
	3900000000	9.98E-02	3.97E-02	-1.34E-01	-8.51E-01	0.00E+00	0.00E+00	0.00E+00	0.00E+00
	3950000000	1.40E-01	8.78E-02	3.10E-02	-8.51E-01	0.00E+00	0.00E+00	0.00E+00	0.00E+00
	4000000000	2.75E-01	7.98E-02	2.37E-01	-8.02E-01	0.00E+00	0.00E+00	0.00E+00	0.00E+00
	4050000000	3.79E-01	-8.32E-02	4.40E-01	-7.54E-01	0.00E+00	0.00E+00	0.00E+00	0.00E+00
	4100000000	3.04E-01	-2.96E-01	5.84E-01	-6.80E-01	0.00E+00	0.00E+00	0.00E+00	0.00E+00
	4150000000	8.61E-02	-3.76E-01	7.14E-01	-5.32E-01	0.00E+00	0.00E+00	0.00E+00	0.00E+00
	4200000000	-9.21E-02	-2.73E-01	8.45E-01	-3.80E-01	0.00E+00	0.00E+00	0.00E+00	0.00E+00
	4250000000	-1.35E-01	-1.35E-01	9.07E-01	-2.37E-01	0.00E+00	0.00E+00	0.00E+00	0.00E+00
	4300000000	-1.51E-01	-3.14E-02	9.09E-01	-5.20E-02	0.00E+00	0.00E+00	0.00E+00	0.00E+00
	4350000000	-1.22E-01	1.40E-01	8.93E-01	1.29E-01	0.00E+00	0.00E+00	0.00E+00	0.00E+00
	4400000000	9.43E-02	2.81E-01	8.17E-01	2.94E-01	0.00E+00	0.00E+00	0.00E+00	0.00E+00
	4450000000	3.81E-01	1.71E-01	6.88E-01	4.69E-01	0.00E+00	0.00E+00	0.00E+00	0.00E+00
	4500000000	4.68E-01	-1.21E-01	5.53E-01	6.31E-01	0.00E+00	0.00E+00	0.00E+00	0.00E+00
	4550000000	3.11E-01	-3.46E-01	3.88E-01	7.38E-01	0.00E+00	0.00E+00	0.00E+00	0.00E+00
	4600000000	1.05E-01	-3.51E-01	1.83E-01	8.29E-01	0.00E+00	0.00E+00	0.00E+00	0.00E+00
	4650000000	3.58E-02	-3.02E-01	-9.28E-03	8.69E-01	0.00E+00	0.00E+00	0.00E+00	0.00E+00
	4700000000	-6.65E-02	-2.42E-01	-2.39E-01	8.80E-01	0.00E+00	0.00E+00	0.00E+00	0.00E+00
	4750000000	-1.10E-01	-1.65E-01	-4.23E-01	8.17E-01	0.00E+00	0.00E+00	0.00E+00	0.00E+00
	4800000000	-1.31E-01	2.01E-03	-6.81E-01	7.38E-01	0.00E+00	0.00E+00	0.00E+00	0.00E+00
	4850000000	5.73E-02	1.33E-01	-9.21E-01	7.10E-01	0.00E+00	0.00E+00	0.00E+00	0.00E+00
	4900000000	2.51E-01	3.88E-03	-1.02E+00	6.76E-01	0.00E+00	0.00E+00	0.00E+00	0.00E+00
	4950000000	1.94E-01	-1.90E-01	-1.04E+00	5.43E-01	0.00E+00	0.00E+00	0.00E+00	0.00E+00
	5000000000	1.84E-02	-1.63E-01	-1.06E+00	3.57E-01	0.00E+00	0.00E+00	0.00E+00	0.00E+00
	5050000000	5.21E-02	1.10E-02	-1.08E+00	7.26E-02	0.00E+00	0.00E+00	0.00E+00	0.00E+00
	5100000000	2.52E-01	-2.03E-02	-1.08E+00	-2.10E-02	0.00E+00	0.00E+00	0.00E+00	0.00E+00
	5150000000	2.71E-01	-2.43E-01	-9.88E-01	-1.94E-01	0.00E+00	0.00E+00	0.00E+00	0.00E+00
	5200000000	6.95E-02	-3.46E-01	-8.70E-01	-3.67E-01	0.00E+00	0.00E+00	0.00E+00	0.00E+00
	5250000000	-7.51E-02	-2.32E-01	-7.42E-01	-5.39E-01	0.00E+00	0.00E+00	0.00E+00	0.00E+00
	5300000000	-3.71E-02	-1.46E-01	-6.04E-01	-6.76E-01	0.00E+00	0.00E+00	0.00E+00	0.00E+00
	5350000000	-5.54E-02	-1.87E-01	-4.53E-01	-7.38E-01	0.00E+00	0.00E+00	0.00E+00	0.00E+00
	5400000000	-1.60E-01	-1.10E-01	-2.43E-01	-7.92E-01	0.00E+00	0.00E+00	0.00E+00	0.00E+00
	5450000000	-9.81E-02	7.27E-02	-6.06E-02	-8.41E-01	0.00E+00	0.00E+00	0.00E+00	0.00E+00
	5500000000	1.25E-01	6.54E-02	6.65E-02	-8.04E-01	0.00E+00	0.00E+00	0.00E+00	0.00E+00
	5550000000	1.85E-01	-1.29E-01	2.27E-01	-6.96E-01	0.00E+00	0.00E+00	0.00E+00	0.00E+00
	5600000000	4.51E-02	-2.03E-01	3.94E-01	-5.61E-01	0.00E+00	0.00E+00	0.00E+00	0.00E+00
	5650000000	3.69E-02	-1.36E-01	5.49E-01	-4.10E-01	0.00E+00	0.00E+00	0.00E+00	0.00E+00
	5700000000	8.76E-02	-1.44E-01	6.58E-01	-2.75E-01	0.00E+00	0.00E+00	0.00E+00	0.00E+00
	5750000000	1.23E-01	-2.29E-01	7.09E-01	-1.14E-01	0.00E+00	0.00E+00	0.00E+00	0.00E+00
	5800000000	5.80E-02	-3.23E-01	7.31E-01	5.29E-02	0.00E+00	0.00E+00	0.00E+00	0.00E+00
	5850000000	-6.13E-02	-3.18E-01	7.01E-01	2.17E-01	0.00E+00	0.00E+00	0.00E+00	0.00E+00
	5900000000	-8.12E-02	-2.23E-01	6.59E-01	3.82E-01	0.00E+00	0.00E+00	0.00E+00	0.00E+00
	5950000000	-9.97E-03	-2.35E-01	5.93E-01	4.95E-01	0.00E+00	0.00E+00	0.00E+00	0.00E+00
	6000000000	-1.24E-01	-2.77E-01	7.42E-01	3.77E-02	0.00E+00	0.00E+00	0.00E+00	0.00E+00
