! NanoVNA-App									
! Date: 2024-03-21 12:58:53									
! Start: 1GHz Stop: 6GHz Points: 101									
! S-Parameter data: F S11 S21 S12 S22									
# Hz S RI R 50									
!	Frequency	S11_Real	S11_Imag	S21_Real	S21_Imag	S12_Real	S12_Imag	S22_Real	S22_Imag
	1000000000	1.22E-01	-2.33E-02	-5.54E-01	-8.77E-01	0.00E+00	0.00E+00	0.00E+00	0.00E+00
	1050000000	5.28E-02	-2.23E-02	-3.74E-01	-9.64E-01	0.00E+00	0.00E+00	0.00E+00	0.00E+00
	1100000000	5.01E-02	-1.07E-02	-1.68E-01	-1.02E+00	0.00E+00	0.00E+00	0.00E+00	0.00E+00
	1150000000	3.06E-02	-4.63E-02	3.77E-02	-1.03E+00	0.00E+00	0.00E+00	0.00E+00	0.00E+00
	1200000000	-4.98E-02	-3.63E-02	2.43E-01	-9.89E-01	0.00E+00	0.00E+00	0.00E+00	0.00E+00
	1250000000	-7.74E-02	6.70E-02	4.49E-01	-9.09E-01	0.00E+00	0.00E+00	0.00E+00	0.00E+00
	1300000000	1.61E-02	1.35E-01	6.30E-01	-8.01E-01	0.00E+00	0.00E+00	0.00E+00	0.00E+00
	1350000000	1.01E-01	6.54E-02	7.71E-01	-6.53E-01	0.00E+00	0.00E+00	0.00E+00	0.00E+00
	1400000000	7.39E-02	4.83E-03	9.00E-01	-4.81E-01	0.00E+00	0.00E+00	0.00E+00	0.00E+00
	1450000000	1.81E-02	2.22E-02	9.73E-01	-3.00E-01	0.00E+00	0.00E+00	0.00E+00	0.00E+00
	1500000000	5.28E-02	6.39E-02	1.00E+00	-1.02E-01	0.00E+00	0.00E+00	0.00E+00	0.00E+00
	1550000000	9.54E-02	6.07E-03	9.90E-01	1.02E-01	0.00E+00	0.00E+00	0.00E+00	0.00E+00
	1600000000	1.25E-02	-5.59E-02	9.42E-01	2.93E-01	0.00E+00	0.00E+00	0.00E+00	0.00E+00
	1650000000	-9.26E-02	3.98E-02	8.57E-01	4.61E-01	0.00E+00	0.00E+00	0.00E+00	0.00E+00
	1700000000	-2.25E-02	1.98E-01	7.28E-01	6.05E-01	0.00E+00	0.00E+00	0.00E+00	0.00E+00
	1750000000	1.63E-01	1.97E-01	5.72E-01	7.36E-01	0.00E+00	0.00E+00	0.00E+00	0.00E+00
	1800000000	2.39E-01	3.92E-02	4.22E-01	8.43E-01	0.00E+00	0.00E+00	0.00E+00	0.00E+00
	1850000000	1.52E-01	-7.47E-02	2.68E-01	8.98E-01	0.00E+00	0.00E+00	0.00E+00	0.00E+00
	1900000000	6.19E-02	-5.65E-02	1.24E-01	9.10E-01	0.00E+00	0.00E+00	0.00E+00	0.00E+00
	1950000000	5.05E-02	-1.98E-02	6.46E-03	8.89E-01	0.00E+00	0.00E+00	0.00E+00	0.00E+00
	2000000000	7.46E-02	-1.86E-02	-4.93E-02	8.07E-01	0.00E+00	0.00E+00	0.00E+00	0.00E+00
	2050000000	6.13E-02	-1.90E-01	-3.88E-02	5.61E-01	0.00E+00	0.00E+00	0.00E+00	0.00E+00
	2100000000	-3.94E-01	-3.88E-02	-2.80E-01	1.98E-01	0.00E+00	0.00E+00	0.00E+00	0.00E+00
	2150000000	-1.90E-01	4.69E-01	-4.96E-01	6.36E-02	0.00E+00	0.00E+00	0.00E+00	0.00E+00
	2200000000	2.66E-01	4.82E-01	-5.98E-01	-5.31E-02	0.00E+00	0.00E+00	0.00E+00	0.00E+00
	2250000000	5.13E-01	1.77E-01	-6.33E-01	-1.63E-01	0.00E+00	0.00E+00	0.00E+00	0.00E+00
	2300000000	4.61E-01	-1.66E-01	-6.06E-01	-2.71E-01	0.00E+00	0.00E+00	0.00E+00	0.00E+00
	2350000000	2.09E-01	-3.49E-01	-5.38E-01	-3.80E-01	0.00E+00	0.00E+00	0.00E+00	0.00E+00
	2400000000	-8.04E-02	-3.12E-01	-4.51E-01	-4.73E-01	0.00E+00	0.00E+00	0.00E+00	0.00E+00
	2450000000	-2.39E-01	-7.87E-02	-3.61E-01	-5.33E-01	0.00E+00	0.00E+00	0.00E+00	0.00E+00
	2500000000	-1.23E-01	1.33E-01	-2.94E-01	-5.04E-01	0.00E+00	0.00E+00	0.00E+00	0.00E+00
	2550000000	-1.55E-01	1.34E-01	-2.96E-02	-3.41E-01	0.00E+00	0.00E+00	0.00E+00	0.00E+00
	2600000000	4.29E-02	3.69E-01	2.22E-01	-3.99E-01	0.00E+00	0.00E+00	0.00E+00	0.00E+00
	2650000000	3.34E-01	2.60E-01	3.64E-01	-3.80E-01	0.00E+00	0.00E+00	0.00E+00	0.00E+00
	2700000000	4.04E-01	-1.62E-02	4.89E-01	-3.02E-01	0.00E+00	0.00E+00	0.00E+00	0.00E+00
	2750000000	2.54E-01	-2.15E-01	5.97E-01	-1.90E-01	0.00E+00	0.00E+00	0.00E+00	0.00E+00
	2800000000	4.67E-02	-2.21E-01	6.82E-01	-6.21E-02	0.00E+00	0.00E+00	0.00E+00	0.00E+00
	2850000000	-6.53E-02	-9.62E-02	7.29E-01	5.44E-02	0.00E+00	0.00E+00	0.00E+00	0.00E+00
	2900000000	-4.80E-02	3.12E-02	7.12E-01	1.76E-01	0.00E+00	0.00E+00	0.00E+00	0.00E+00
	2950000000	1.43E-02	7.68E-02	6.37E-01	3.50E-01	0.00E+00	0.00E+00	0.00E+00	0.00E+00
	3000000000	1.04E-01	1.27E-01	5.94E-01	5.06E-01	0.00E+00	0.00E+00	0.00E+00	0.00E+00
	3050000000	2.17E-01	6.45E-02	4.94E-01	6.22E-01	0.00E+00	0.00E+00	0.00E+00	0.00E+00
	3100000000	2.31E-01	-6.42E-02	3.63E-01	7.29E-01	0.00E+00	0.00E+00	0.00E+00	0.00E+00
	3150000000	1.39E-01	-1.43E-01	2.34E-01	8.14E-01	0.00E+00	0.00E+00	0.00E+00	0.00E+00
	3200000000	4.32E-02	-1.11E-01	9.64E-02	8.41E-01	0.00E+00	0.00E+00	0.00E+00	0.00E+00
	3250000000	2.56E-02	-3.40E-02	-6.92E-02	8.30E-01	0.00E+00	0.00E+00	0.00E+00	0.00E+00
	3300000000	5.99E-02	8.53E-03	-2.27E-01	7.96E-01	0.00E+00	0.00E+00	0.00E+00	0.00E+00
	3350000000	9.08E-02	1.52E-02	-3.73E-01	7.32E-01	0.00E+00	0.00E+00	0.00E+00	0.00E+00
	3400000000	9.49E-02	2.98E-02	-4.88E-01	6.49E-01	0.00E+00	0.00E+00	0.00E+00	0.00E+00
	3450000000	1.84E-01	9.48E-02	-5.12E-01	5.07E-01	0.00E+00	0.00E+00	0.00E+00	0.00E+00
	3500000000	2.75E-01	-7.30E-03	-5.77E-01	2.77E-01	0.00E+00	0.00E+00	0.00E+00	0.00E+00
	3550000000	2.68E-01	-1.51E-01	-6.49E-01	2.97E-02	0.00E+00	0.00E+00	0.00E+00	0.00E+00
	3600000000	1.47E-01	-1.95E-01	-7.19E-01	-1.41E-01	0.00E+00	0.00E+00	0.00E+00	0.00E+00
	3650000000	7.66E-02	-1.69E-01	-7.10E-01	-3.00E-01	0.00E+00	0.00E+00	0.00E+00	0.00E+00
	3700000000	2.41E-02	-1.35E-01	-6.56E-01	-4.73E-01	0.00E+00	0.00E+00	0.00E+00	0.00E+00
	3750000000	-1.36E-02	-6.32E-02	-5.85E-01	-6.23E-01	0.00E+00	0.00E+00	0.00E+00	0.00E+00
	3800000000	1.62E-02	2.16E-02	-4.78E-01	-7.23E-01	0.00E+00	0.00E+00	0.00E+00	0.00E+00
	3850000000	8.08E-02	3.96E-02	-3.10E-01	-7.99E-01	0.00E+00	0.00E+00	0.00E+00	0.00E+00
	3900000000	9.76E-02	3.72E-02	-1.33E-01	-8.58E-01	0.00E+00	0.00E+00	0.00E+00	0.00E+00
	3950000000	1.36E-01	8.72E-02	3.36E-02	-8.56E-01	0.00E+00	0.00E+00	0.00E+00	0.00E+00
	4000000000	2.74E-01	8.27E-02	2.37E-01	-8.07E-01	0.00E+00	0.00E+00	0.00E+00	0.00E+00
	4050000000	3.81E-01	-8.09E-02	4.44E-01	-7.57E-01	0.00E+00	0.00E+00	0.00E+00	0.00E+00
	4100000000	3.07E-01	-2.96E-01	5.87E-01	-6.82E-01	0.00E+00	0.00E+00	0.00E+00	0.00E+00
	4150000000	8.77E-02	-3.78E-01	7.14E-01	-5.37E-01	0.00E+00	0.00E+00	0.00E+00	0.00E+00
	4200000000	-9.15E-02	-2.74E-01	8.48E-01	-3.77E-01	0.00E+00	0.00E+00	0.00E+00	0.00E+00
	4250000000	-1.35E-01	-1.35E-01	9.09E-01	-2.38E-01	0.00E+00	0.00E+00	0.00E+00	0.00E+00
	4300000000	-1.51E-01	-3.23E-02	9.10E-01	-4.79E-02	0.00E+00	0.00E+00	0.00E+00	0.00E+00
	4350000000	-1.23E-01	1.39E-01	8.94E-01	1.35E-01	0.00E+00	0.00E+00	0.00E+00	0.00E+00
	4400000000	9.50E-02	2.82E-01	8.17E-01	2.97E-01	0.00E+00	0.00E+00	0.00E+00	0.00E+00
	4450000000	3.81E-01	1.73E-01	6.89E-01	4.70E-01	0.00E+00	0.00E+00	0.00E+00	0.00E+00
	4500000000	4.69E-01	-1.21E-01	5.53E-01	6.31E-01	0.00E+00	0.00E+00	0.00E+00	0.00E+00
	4550000000	3.14E-01	-3.45E-01	3.83E-01	7.41E-01	0.00E+00	0.00E+00	0.00E+00	0.00E+00
	4600000000	1.06E-01	-3.53E-01	1.80E-01	8.31E-01	0.00E+00	0.00E+00	0.00E+00	0.00E+00
	4650000000	3.40E-02	-3.02E-01	-1.68E-02	8.71E-01	0.00E+00	0.00E+00	0.00E+00	0.00E+00
	4700000000	-6.83E-02	-2.41E-01	-2.48E-01	8.80E-01	0.00E+00	0.00E+00	0.00E+00	0.00E+00
	4750000000	-1.11E-01	-1.65E-01	-4.30E-01	8.17E-01	0.00E+00	0.00E+00	0.00E+00	0.00E+00
	4800000000	-1.32E-01	2.58E-03	-6.88E-01	7.32E-01	0.00E+00	0.00E+00	0.00E+00	0.00E+00
	4850000000	5.63E-02	1.36E-01	-9.26E-01	7.08E-01	0.00E+00	0.00E+00	0.00E+00	0.00E+00
	4900000000	2.52E-01	7.15E-03	-1.03E+00	6.68E-01	0.00E+00	0.00E+00	0.00E+00	0.00E+00
	4950000000	1.96E-01	-1.89E-01	-1.04E+00	5.44E-01	0.00E+00	0.00E+00	0.00E+00	0.00E+00
	5000000000	1.87E-02	-1.64E-01	-1.06E+00	3.50E-01	0.00E+00	0.00E+00	0.00E+00	0.00E+00
	5050000000	4.93E-02	8.86E-03	-1.08E+00	6.37E-02	0.00E+00	0.00E+00	0.00E+00	0.00E+00
	5100000000	2.49E-01	-1.97E-02	-1.08E+00	-3.47E-02	0.00E+00	0.00E+00	0.00E+00	0.00E+00
	5150000000	2.71E-01	-2.41E-01	-9.90E-01	-2.04E-01	0.00E+00	0.00E+00	0.00E+00	0.00E+00
	5200000000	6.85E-02	-3.45E-01	-8.72E-01	-3.74E-01	0.00E+00	0.00E+00	0.00E+00	0.00E+00
	5250000000	-7.68E-02	-2.32E-01	-7.43E-01	-5.45E-01	0.00E+00	0.00E+00	0.00E+00	0.00E+00
	5300000000	-3.69E-02	-1.44E-01	-5.99E-01	-6.85E-01	0.00E+00	0.00E+00	0.00E+00	0.00E+00
	5350000000	-5.56E-02	-1.85E-01	-4.51E-01	-7.42E-01	0.00E+00	0.00E+00	0.00E+00	0.00E+00
	5400000000	-1.61E-01	-1.11E-01	-2.34E-01	-7.98E-01	0.00E+00	0.00E+00	0.00E+00	0.00E+00
	5450000000	-1.00E-01	7.21E-02	-5.67E-02	-8.44E-01	0.00E+00	0.00E+00	0.00E+00	0.00E+00
	5500000000	1.24E-01	6.65E-02	7.41E-02	-8.06E-01	0.00E+00	0.00E+00	0.00E+00	0.00E+00
	5550000000	1.83E-01	-1.30E-01	2.43E-01	-6.92E-01	0.00E+00	0.00E+00	0.00E+00	0.00E+00
	5600000000	4.37E-02	-2.02E-01	4.02E-01	-5.58E-01	0.00E+00	0.00E+00	0.00E+00	0.00E+00
	5650000000	3.66E-02	-1.34E-01	5.54E-01	-4.06E-01	0.00E+00	0.00E+00	0.00E+00	0.00E+00
	5700000000	8.68E-02	-1.42E-01	6.62E-01	-2.71E-01	0.00E+00	0.00E+00	0.00E+00	0.00E+00
	5750000000	1.23E-01	-2.30E-01	7.13E-01	-1.08E-01	0.00E+00	0.00E+00	0.00E+00	0.00E+00
	5800000000	5.55E-02	-3.23E-01	7.32E-01	6.02E-02	0.00E+00	0.00E+00	0.00E+00	0.00E+00
	5850000000	-6.52E-02	-3.18E-01	7.01E-01	2.23E-01	0.00E+00	0.00E+00	0.00E+00	0.00E+00
	5900000000	-8.32E-02	-2.23E-01	6.57E-01	3.92E-01	0.00E+00	0.00E+00	0.00E+00	0.00E+00
	5950000000	-1.41E-02	-2.33E-01	5.91E-01	5.03E-01	0.00E+00	0.00E+00	0.00E+00	0.00E+00
	6000000000	-1.26E-01	-2.72E-01	7.45E-01	4.37E-02	0.00E+00	0.00E+00	0.00E+00	0.00E+00
