! NanoVNA-App									
! Date: 2024-03-21 18:09:59									
! Start: 1GHz Stop: 6GHz Points: 101									
! S-Parameter data: F S11 S21 S12 S22									
# Hz S RI R 50									
!	Frequency	S11_Real	S11_Imag	S21_Real	S21_Imag	S12_Real	S12_Imag	S22_Real	S22_Imag
	1000000000	1.20E-01	-2.21E-02	-5.58E-01	-8.75E-01	0.00E+00	0.00E+00	0.00E+00	0.00E+00
	1050000000	5.22E-02	-2.18E-02	-3.79E-01	-9.62E-01	0.00E+00	0.00E+00	0.00E+00	0.00E+00
	1100000000	4.97E-02	-1.16E-02	-1.72E-01	-1.02E+00	0.00E+00	0.00E+00	0.00E+00	0.00E+00
	1150000000	2.89E-02	-4.81E-02	3.36E-02	-1.03E+00	0.00E+00	0.00E+00	0.00E+00	0.00E+00
	1200000000	-5.27E-02	-3.73E-02	2.40E-01	-9.90E-01	0.00E+00	0.00E+00	0.00E+00	0.00E+00
	1250000000	-8.01E-02	6.69E-02	4.45E-01	-9.11E-01	0.00E+00	0.00E+00	0.00E+00	0.00E+00
	1300000000	1.35E-02	1.35E-01	6.27E-01	-8.04E-01	0.00E+00	0.00E+00	0.00E+00	0.00E+00
	1350000000	9.94E-02	6.65E-02	7.69E-01	-6.59E-01	0.00E+00	0.00E+00	0.00E+00	0.00E+00
	1400000000	7.19E-02	5.40E-03	9.01E-01	-4.87E-01	0.00E+00	0.00E+00	0.00E+00	0.00E+00
	1450000000	1.76E-02	2.35E-02	9.72E-01	-3.04E-01	0.00E+00	0.00E+00	0.00E+00	0.00E+00
	1500000000	5.41E-02	6.40E-02	1.00E+00	-1.07E-01	0.00E+00	0.00E+00	0.00E+00	0.00E+00
	1550000000	9.69E-02	3.93E-03	9.92E-01	9.72E-02	0.00E+00	0.00E+00	0.00E+00	0.00E+00
	1600000000	1.29E-02	-5.99E-02	9.48E-01	2.90E-01	0.00E+00	0.00E+00	0.00E+00	0.00E+00
	1650000000	-9.47E-02	3.48E-02	8.61E-01	4.59E-01	0.00E+00	0.00E+00	0.00E+00	0.00E+00
	1700000000	-2.72E-02	1.94E-01	7.34E-01	6.03E-01	0.00E+00	0.00E+00	0.00E+00	0.00E+00
	1750000000	1.57E-01	1.96E-01	5.80E-01	7.36E-01	0.00E+00	0.00E+00	0.00E+00	0.00E+00
	1800000000	2.34E-01	4.34E-02	4.28E-01	8.46E-01	0.00E+00	0.00E+00	0.00E+00	0.00E+00
	1850000000	1.51E-01	-6.84E-02	2.75E-01	9.01E-01	0.00E+00	0.00E+00	0.00E+00	0.00E+00
	1900000000	6.74E-02	-5.13E-02	1.27E-01	9.15E-01	0.00E+00	0.00E+00	0.00E+00	0.00E+00
	1950000000	5.97E-02	-2.07E-02	1.42E-02	8.95E-01	0.00E+00	0.00E+00	0.00E+00	0.00E+00
	2000000000	8.31E-02	-2.77E-02	-4.18E-02	8.10E-01	0.00E+00	0.00E+00	0.00E+00	0.00E+00
	2050000000	5.37E-02	-2.09E-01	-3.78E-02	5.52E-01	0.00E+00	0.00E+00	0.00E+00	0.00E+00
	2100000000	-4.03E-01	-3.37E-02	-2.95E-01	2.02E-01	0.00E+00	0.00E+00	0.00E+00	0.00E+00
	2150000000	-1.94E-01	4.69E-01	-5.08E-01	7.23E-02	0.00E+00	0.00E+00	0.00E+00	0.00E+00
	2200000000	2.59E-01	4.86E-01	-6.11E-01	-4.73E-02	0.00E+00	0.00E+00	0.00E+00	0.00E+00
	2250000000	5.11E-01	1.85E-01	-6.48E-01	-1.56E-01	0.00E+00	0.00E+00	0.00E+00	0.00E+00
	2300000000	4.66E-01	-1.56E-01	-6.24E-01	-2.65E-01	0.00E+00	0.00E+00	0.00E+00	0.00E+00
	2350000000	2.23E-01	-3.45E-01	-5.57E-01	-3.76E-01	0.00E+00	0.00E+00	0.00E+00	0.00E+00
	2400000000	-6.69E-02	-3.23E-01	-4.74E-01	-4.68E-01	0.00E+00	0.00E+00	0.00E+00	0.00E+00
	2450000000	-2.41E-01	-1.01E-01	-3.88E-01	-5.31E-01	0.00E+00	0.00E+00	0.00E+00	0.00E+00
	2500000000	-1.41E-01	1.21E-01	-3.23E-01	-5.02E-01	0.00E+00	0.00E+00	0.00E+00	0.00E+00
	2550000000	-1.83E-01	1.44E-01	-4.51E-02	-3.43E-01	0.00E+00	0.00E+00	0.00E+00	0.00E+00
	2600000000	3.90E-02	3.91E-01	1.96E-01	-4.10E-01	0.00E+00	0.00E+00	0.00E+00	0.00E+00
	2650000000	3.48E-01	2.76E-01	3.38E-01	-3.92E-01	0.00E+00	0.00E+00	0.00E+00	0.00E+00
	2700000000	4.24E-01	-1.61E-02	4.63E-01	-3.16E-01	0.00E+00	0.00E+00	0.00E+00	0.00E+00
	2750000000	2.70E-01	-2.28E-01	5.72E-01	-2.05E-01	0.00E+00	0.00E+00	0.00E+00	0.00E+00
	2800000000	4.41E-02	-2.41E-01	6.57E-01	-8.25E-02	0.00E+00	0.00E+00	0.00E+00	0.00E+00
	2850000000	-8.50E-02	-1.10E-01	7.11E-01	3.56E-02	0.00E+00	0.00E+00	0.00E+00	0.00E+00
	2900000000	-6.83E-02	3.84E-02	6.97E-01	1.58E-01	0.00E+00	0.00E+00	0.00E+00	0.00E+00
	2950000000	8.71E-03	9.67E-02	6.27E-01	3.30E-01	0.00E+00	0.00E+00	0.00E+00	0.00E+00
	3000000000	1.16E-01	1.40E-01	5.83E-01	4.88E-01	0.00E+00	0.00E+00	0.00E+00	0.00E+00
	3050000000	2.30E-01	6.37E-02	4.91E-01	6.02E-01	0.00E+00	0.00E+00	0.00E+00	0.00E+00
	3100000000	2.40E-01	-7.20E-02	3.62E-01	7.14E-01	0.00E+00	0.00E+00	0.00E+00	0.00E+00
	3150000000	1.41E-01	-1.53E-01	2.41E-01	7.99E-01	0.00E+00	0.00E+00	0.00E+00	0.00E+00
	3200000000	3.77E-02	-1.19E-01	1.06E-01	8.27E-01	0.00E+00	0.00E+00	0.00E+00	0.00E+00
	3250000000	1.72E-02	-3.50E-02	-5.54E-02	8.18E-01	0.00E+00	0.00E+00	0.00E+00	0.00E+00
	3300000000	5.58E-02	1.41E-02	-2.15E-01	7.87E-01	0.00E+00	0.00E+00	0.00E+00	0.00E+00
	3350000000	9.26E-02	2.04E-02	-3.60E-01	7.24E-01	0.00E+00	0.00E+00	0.00E+00	0.00E+00
	3400000000	9.71E-02	3.20E-02	-4.71E-01	6.47E-01	0.00E+00	0.00E+00	0.00E+00	0.00E+00
	3450000000	1.89E-01	9.59E-02	-4.97E-01	5.05E-01	0.00E+00	0.00E+00	0.00E+00	0.00E+00
	3500000000	2.80E-01	-6.49E-03	-5.60E-01	2.79E-01	0.00E+00	0.00E+00	0.00E+00	0.00E+00
	3550000000	2.71E-01	-1.53E-01	-6.35E-01	3.58E-02	0.00E+00	0.00E+00	0.00E+00	0.00E+00
	3600000000	1.49E-01	-1.99E-01	-7.08E-01	-1.38E-01	0.00E+00	0.00E+00	0.00E+00	0.00E+00
	3650000000	7.44E-02	-1.72E-01	-7.01E-01	-2.93E-01	0.00E+00	0.00E+00	0.00E+00	0.00E+00
	3700000000	2.08E-02	-1.33E-01	-6.50E-01	-4.66E-01	0.00E+00	0.00E+00	0.00E+00	0.00E+00
	3750000000	-1.46E-02	-5.92E-02	-5.81E-01	-6.14E-01	0.00E+00	0.00E+00	0.00E+00	0.00E+00
	3800000000	1.71E-02	2.43E-02	-4.77E-01	-7.13E-01	0.00E+00	0.00E+00	0.00E+00	0.00E+00
	3850000000	8.23E-02	4.24E-02	-3.14E-01	-7.90E-01	0.00E+00	0.00E+00	0.00E+00	0.00E+00
	3900000000	1.01E-01	4.04E-02	-1.40E-01	-8.50E-01	0.00E+00	0.00E+00	0.00E+00	0.00E+00
	3950000000	1.42E-01	8.77E-02	2.73E-02	-8.49E-01	0.00E+00	0.00E+00	0.00E+00	0.00E+00
	4000000000	2.78E-01	7.85E-02	2.33E-01	-8.02E-01	0.00E+00	0.00E+00	0.00E+00	0.00E+00
	4050000000	3.79E-01	-8.56E-02	4.38E-01	-7.52E-01	0.00E+00	0.00E+00	0.00E+00	0.00E+00
	4100000000	3.02E-01	-2.97E-01	5.81E-01	-6.80E-01	0.00E+00	0.00E+00	0.00E+00	0.00E+00
	4150000000	8.26E-02	-3.75E-01	7.11E-01	-5.35E-01	0.00E+00	0.00E+00	0.00E+00	0.00E+00
	4200000000	-9.50E-02	-2.69E-01	8.42E-01	-3.87E-01	0.00E+00	0.00E+00	0.00E+00	0.00E+00
	4250000000	-1.35E-01	-1.32E-01	9.05E-01	-2.43E-01	0.00E+00	0.00E+00	0.00E+00	0.00E+00
	4300000000	-1.49E-01	-3.14E-02	9.07E-01	-5.68E-02	0.00E+00	0.00E+00	0.00E+00	0.00E+00
	4350000000	-1.21E-01	1.38E-01	8.92E-01	1.25E-01	0.00E+00	0.00E+00	0.00E+00	0.00E+00
	4400000000	9.51E-02	2.78E-01	8.16E-01	2.92E-01	0.00E+00	0.00E+00	0.00E+00	0.00E+00
	4450000000	3.79E-01	1.69E-01	6.89E-01	4.64E-01	0.00E+00	0.00E+00	0.00E+00	0.00E+00
	4500000000	4.66E-01	-1.24E-01	5.55E-01	6.28E-01	0.00E+00	0.00E+00	0.00E+00	0.00E+00
	4550000000	3.11E-01	-3.48E-01	3.88E-01	7.38E-01	0.00E+00	0.00E+00	0.00E+00	0.00E+00
	4600000000	1.03E-01	-3.51E-01	1.86E-01	8.30E-01	0.00E+00	0.00E+00	0.00E+00	0.00E+00
	4650000000	3.57E-02	-2.99E-01	-5.12E-03	8.71E-01	0.00E+00	0.00E+00	0.00E+00	0.00E+00
	4700000000	-6.25E-02	-2.41E-01	-2.31E-01	8.84E-01	0.00E+00	0.00E+00	0.00E+00	0.00E+00
	4750000000	-1.05E-01	-1.69E-01	-4.18E-01	8.19E-01	0.00E+00	0.00E+00	0.00E+00	0.00E+00
	4800000000	-1.28E-01	-2.74E-03	-6.77E-01	7.40E-01	0.00E+00	0.00E+00	0.00E+00	0.00E+00
	4850000000	5.89E-02	1.29E-01	-9.15E-01	7.16E-01	0.00E+00	0.00E+00	0.00E+00	0.00E+00
	4900000000	2.50E-01	-9.27E-04	-1.02E+00	6.81E-01	0.00E+00	0.00E+00	0.00E+00	0.00E+00
	4950000000	1.91E-01	-1.94E-01	-1.03E+00	5.52E-01	0.00E+00	0.00E+00	0.00E+00	0.00E+00
	5000000000	1.45E-02	-1.62E-01	-1.06E+00	3.67E-01	0.00E+00	0.00E+00	0.00E+00	0.00E+00
	5050000000	5.19E-02	1.60E-02	-1.08E+00	8.62E-02	0.00E+00	0.00E+00	0.00E+00	0.00E+00
	5100000000	2.58E-01	-1.79E-02	-1.07E+00	-1.94E-02	0.00E+00	0.00E+00	0.00E+00	0.00E+00
	5150000000	2.76E-01	-2.44E-01	-9.89E-01	-1.80E-01	0.00E+00	0.00E+00	0.00E+00	0.00E+00
	5200000000	7.79E-02	-3.51E-01	-8.74E-01	-3.57E-01	0.00E+00	0.00E+00	0.00E+00	0.00E+00
	5250000000	-7.23E-02	-2.35E-01	-7.48E-01	-5.28E-01	0.00E+00	0.00E+00	0.00E+00	0.00E+00
	5300000000	-3.61E-02	-1.50E-01	-6.11E-01	-6.69E-01	0.00E+00	0.00E+00	0.00E+00	0.00E+00
	5350000000	-5.50E-02	-1.92E-01	-4.59E-01	-7.32E-01	0.00E+00	0.00E+00	0.00E+00	0.00E+00
	5400000000	-1.62E-01	-1.10E-01	-2.52E-01	-7.88E-01	0.00E+00	0.00E+00	0.00E+00	0.00E+00
	5450000000	-9.64E-02	7.53E-02	-7.64E-02	-8.39E-01	0.00E+00	0.00E+00	0.00E+00	0.00E+00
	5500000000	1.28E-01	6.50E-02	5.44E-02	-8.02E-01	0.00E+00	0.00E+00	0.00E+00	0.00E+00
	5550000000	1.85E-01	-1.31E-01	2.13E-01	-6.96E-01	0.00E+00	0.00E+00	0.00E+00	0.00E+00
	5600000000	4.89E-02	-2.01E-01	3.87E-01	-5.60E-01	0.00E+00	0.00E+00	0.00E+00	0.00E+00
	5650000000	4.40E-02	-1.40E-01	5.41E-01	-4.16E-01	0.00E+00	0.00E+00	0.00E+00	0.00E+00
	5700000000	8.96E-02	-1.49E-01	6.51E-01	-2.82E-01	0.00E+00	0.00E+00	0.00E+00	0.00E+00
	5750000000	1.23E-01	-2.33E-01	7.05E-01	-1.20E-01	0.00E+00	0.00E+00	0.00E+00	0.00E+00
	5800000000	5.69E-02	-3.24E-01	7.28E-01	4.24E-02	0.00E+00	0.00E+00	0.00E+00	0.00E+00
	5850000000	-5.91E-02	-3.17E-01	7.01E-01	2.07E-01	0.00E+00	0.00E+00	0.00E+00	0.00E+00
	5900000000	-7.70E-02	-2.21E-01	6.60E-01	3.72E-01	0.00E+00	0.00E+00	0.00E+00	0.00E+00
	5950000000	-2.56E-03	-2.37E-01	5.94E-01	4.86E-01	0.00E+00	0.00E+00	0.00E+00	0.00E+00
	6000000000	-1.15E-01	-2.83E-01	7.37E-01	3.24E-02	0.00E+00	0.00E+00	0.00E+00	0.00E+00
