! NanoVNA-App									
! Date: 2024-03-21 15:35:26									
! Start: 1GHz Stop: 6GHz Points: 101									
! S-Parameter data: F S11 S21 S12 S22									
# Hz S RI R 50									
!	Frequency	S11_Real	S11_Imag	S21_Real	S21_Imag	S12_Real	S12_Imag	S22_Real	S22_Imag
	1000000000	1.21E-01	-2.30E-02	-5.58E-01	-8.76E-01	0.00E+00	0.00E+00	0.00E+00	0.00E+00
	1050000000	5.18E-02	-2.21E-02	-3.79E-01	-9.62E-01	0.00E+00	0.00E+00	0.00E+00	0.00E+00
	1100000000	4.96E-02	-1.11E-02	-1.71E-01	-1.02E+00	0.00E+00	0.00E+00	0.00E+00	0.00E+00
	1150000000	2.93E-02	-4.72E-02	3.37E-02	-1.03E+00	0.00E+00	0.00E+00	0.00E+00	0.00E+00
	1200000000	-5.17E-02	-3.66E-02	2.40E-01	-9.90E-01	0.00E+00	0.00E+00	0.00E+00	0.00E+00
	1250000000	-7.89E-02	6.71E-02	4.45E-01	-9.11E-01	0.00E+00	0.00E+00	0.00E+00	0.00E+00
	1300000000	1.46E-02	1.35E-01	6.27E-01	-8.04E-01	0.00E+00	0.00E+00	0.00E+00	0.00E+00
	1350000000	1.00E-01	6.55E-02	7.67E-01	-6.59E-01	0.00E+00	0.00E+00	0.00E+00	0.00E+00
	1400000000	7.26E-02	4.66E-03	8.99E-01	-4.88E-01	0.00E+00	0.00E+00	0.00E+00	0.00E+00
	1450000000	1.75E-02	2.25E-02	9.72E-01	-3.05E-01	0.00E+00	0.00E+00	0.00E+00	0.00E+00
	1500000000	5.31E-02	6.37E-02	1.00E+00	-1.05E-01	0.00E+00	0.00E+00	0.00E+00	0.00E+00
	1550000000	9.59E-02	4.66E-03	9.92E-01	9.61E-02	0.00E+00	0.00E+00	0.00E+00	0.00E+00
	1600000000	1.25E-02	-5.84E-02	9.44E-01	2.87E-01	0.00E+00	0.00E+00	0.00E+00	0.00E+00
	1650000000	-9.40E-02	3.67E-02	8.62E-01	4.60E-01	0.00E+00	0.00E+00	0.00E+00	0.00E+00
	1700000000	-2.52E-02	1.96E-01	7.33E-01	6.03E-01	0.00E+00	0.00E+00	0.00E+00	0.00E+00
	1750000000	1.60E-01	1.96E-01	5.78E-01	7.34E-01	0.00E+00	0.00E+00	0.00E+00	0.00E+00
	1800000000	2.36E-01	4.18E-02	4.28E-01	8.43E-01	0.00E+00	0.00E+00	0.00E+00	0.00E+00
	1850000000	1.52E-01	-7.12E-02	2.73E-01	9.00E-01	0.00E+00	0.00E+00	0.00E+00	0.00E+00
	1900000000	6.51E-02	-5.38E-02	1.29E-01	9.15E-01	0.00E+00	0.00E+00	0.00E+00	0.00E+00
	1950000000	5.58E-02	-2.06E-02	1.31E-02	8.92E-01	0.00E+00	0.00E+00	0.00E+00	0.00E+00
	2000000000	7.97E-02	-2.41E-02	-4.17E-02	8.09E-01	0.00E+00	0.00E+00	0.00E+00	0.00E+00
	2050000000	5.48E-02	-2.03E-01	-3.35E-02	5.56E-01	0.00E+00	0.00E+00	0.00E+00	0.00E+00
	2100000000	-4.00E-01	-3.50E-02	-2.89E-01	2.01E-01	0.00E+00	0.00E+00	0.00E+00	0.00E+00
	2150000000	-1.93E-01	4.69E-01	-5.04E-01	6.93E-02	0.00E+00	0.00E+00	0.00E+00	0.00E+00
	2200000000	2.63E-01	4.84E-01	-6.06E-01	-4.75E-02	0.00E+00	0.00E+00	0.00E+00	0.00E+00
	2250000000	5.12E-01	1.82E-01	-6.43E-01	-1.57E-01	0.00E+00	0.00E+00	0.00E+00	0.00E+00
	2300000000	4.63E-01	-1.61E-01	-6.18E-01	-2.64E-01	0.00E+00	0.00E+00	0.00E+00	0.00E+00
	2350000000	2.16E-01	-3.47E-01	-5.49E-01	-3.75E-01	0.00E+00	0.00E+00	0.00E+00	0.00E+00
	2400000000	-7.35E-02	-3.18E-01	-4.65E-01	-4.68E-01	0.00E+00	0.00E+00	0.00E+00	0.00E+00
	2450000000	-2.41E-01	-9.13E-02	-3.79E-01	-5.30E-01	0.00E+00	0.00E+00	0.00E+00	0.00E+00
	2500000000	-1.33E-01	1.27E-01	-3.12E-01	-5.01E-01	0.00E+00	0.00E+00	0.00E+00	0.00E+00
	2550000000	-1.71E-01	1.40E-01	-4.01E-02	-3.42E-01	0.00E+00	0.00E+00	0.00E+00	0.00E+00
	2600000000	4.09E-02	3.82E-01	2.05E-01	-4.06E-01	0.00E+00	0.00E+00	0.00E+00	0.00E+00
	2650000000	3.42E-01	2.69E-01	3.46E-01	-3.87E-01	0.00E+00	0.00E+00	0.00E+00	0.00E+00
	2700000000	4.15E-01	-1.67E-02	4.71E-01	-3.11E-01	0.00E+00	0.00E+00	0.00E+00	0.00E+00
	2750000000	2.62E-01	-2.24E-01	5.81E-01	-2.02E-01	0.00E+00	0.00E+00	0.00E+00	0.00E+00
	2800000000	4.39E-02	-2.37E-01	6.73E-01	-7.61E-02	0.00E+00	0.00E+00	0.00E+00	0.00E+00
	2850000000	-7.73E-02	-1.04E-01	7.19E-01	4.14E-02	0.00E+00	0.00E+00	0.00E+00	0.00E+00
	2900000000	-5.98E-02	3.58E-02	7.04E-01	1.65E-01	0.00E+00	0.00E+00	0.00E+00	0.00E+00
	2950000000	1.09E-02	8.81E-02	6.28E-01	3.36E-01	0.00E+00	0.00E+00	0.00E+00	0.00E+00
	3000000000	1.10E-01	1.34E-01	5.89E-01	4.95E-01	0.00E+00	0.00E+00	0.00E+00	0.00E+00
	3050000000	2.24E-01	6.40E-02	4.96E-01	6.08E-01	0.00E+00	0.00E+00	0.00E+00	0.00E+00
	3100000000	2.36E-01	-6.87E-02	3.67E-01	7.19E-01	0.00E+00	0.00E+00	0.00E+00	0.00E+00
	3150000000	1.41E-01	-1.48E-01	2.40E-01	8.05E-01	0.00E+00	0.00E+00	0.00E+00	0.00E+00
	3200000000	4.03E-02	-1.16E-01	1.06E-01	8.32E-01	0.00E+00	0.00E+00	0.00E+00	0.00E+00
	3250000000	2.09E-02	-3.53E-02	-5.58E-02	8.22E-01	0.00E+00	0.00E+00	0.00E+00	0.00E+00
	3300000000	5.81E-02	1.09E-02	-2.16E-01	7.92E-01	0.00E+00	0.00E+00	0.00E+00	0.00E+00
	3350000000	9.25E-02	1.70E-02	-3.61E-01	7.28E-01	0.00E+00	0.00E+00	0.00E+00	0.00E+00
	3400000000	9.63E-02	2.97E-02	-4.76E-01	6.48E-01	0.00E+00	0.00E+00	0.00E+00	0.00E+00
	3450000000	1.85E-01	9.68E-02	-5.00E-01	5.07E-01	0.00E+00	0.00E+00	0.00E+00	0.00E+00
	3500000000	2.80E-01	-5.74E-03	-5.66E-01	2.79E-01	0.00E+00	0.00E+00	0.00E+00	0.00E+00
	3550000000	2.70E-01	-1.53E-01	-6.40E-01	3.52E-02	0.00E+00	0.00E+00	0.00E+00	0.00E+00
	3600000000	1.49E-01	-1.98E-01	-7.13E-01	-1.33E-01	0.00E+00	0.00E+00	0.00E+00	0.00E+00
	3650000000	7.56E-02	-1.72E-01	-7.06E-01	-2.92E-01	0.00E+00	0.00E+00	0.00E+00	0.00E+00
	3700000000	2.21E-02	-1.34E-01	-6.54E-01	-4.64E-01	0.00E+00	0.00E+00	0.00E+00	0.00E+00
	3750000000	-1.39E-02	-6.09E-02	-5.86E-01	-6.15E-01	0.00E+00	0.00E+00	0.00E+00	0.00E+00
	3800000000	1.69E-02	2.37E-02	-4.78E-01	-7.16E-01	0.00E+00	0.00E+00	0.00E+00	0.00E+00
	3850000000	8.17E-02	4.16E-02	-3.14E-01	-7.92E-01	0.00E+00	0.00E+00	0.00E+00	0.00E+00
	3900000000	1.00E-01	3.98E-02	-1.41E-01	-8.52E-01	0.00E+00	0.00E+00	0.00E+00	0.00E+00
	3950000000	1.40E-01	8.76E-02	2.94E-02	-8.53E-01	0.00E+00	0.00E+00	0.00E+00	0.00E+00
	4000000000	2.76E-01	8.00E-02	2.34E-01	-8.05E-01	0.00E+00	0.00E+00	0.00E+00	0.00E+00
	4050000000	3.79E-01	-8.52E-02	4.36E-01	-7.58E-01	0.00E+00	0.00E+00	0.00E+00	0.00E+00
	4100000000	3.03E-01	-2.96E-01	5.82E-01	-6.84E-01	0.00E+00	0.00E+00	0.00E+00	0.00E+00
	4150000000	8.47E-02	-3.75E-01	7.12E-01	-5.40E-01	0.00E+00	0.00E+00	0.00E+00	0.00E+00
	4200000000	-9.28E-02	-2.70E-01	8.42E-01	-3.87E-01	0.00E+00	0.00E+00	0.00E+00	0.00E+00
	4250000000	-1.34E-01	-1.34E-01	9.07E-01	-2.45E-01	0.00E+00	0.00E+00	0.00E+00	0.00E+00
	4300000000	-1.50E-01	-3.27E-02	9.10E-01	-5.83E-02	0.00E+00	0.00E+00	0.00E+00	0.00E+00
	4350000000	-1.22E-01	1.39E-01	8.95E-01	1.22E-01	0.00E+00	0.00E+00	0.00E+00	0.00E+00
	4400000000	9.47E-02	2.80E-01	8.19E-01	2.87E-01	0.00E+00	0.00E+00	0.00E+00	0.00E+00
	4450000000	3.80E-01	1.70E-01	6.91E-01	4.63E-01	0.00E+00	0.00E+00	0.00E+00	0.00E+00
	4500000000	4.67E-01	-1.23E-01	5.59E-01	6.26E-01	0.00E+00	0.00E+00	0.00E+00	0.00E+00
	4550000000	3.11E-01	-3.46E-01	3.91E-01	7.35E-01	0.00E+00	0.00E+00	0.00E+00	0.00E+00
	4600000000	1.06E-01	-3.51E-01	1.90E-01	8.26E-01	0.00E+00	0.00E+00	0.00E+00	0.00E+00
	4650000000	3.55E-02	-3.02E-01	-2.77E-03	8.68E-01	0.00E+00	0.00E+00	0.00E+00	0.00E+00
	4700000000	-6.35E-02	-2.43E-01	-2.35E-01	8.83E-01	0.00E+00	0.00E+00	0.00E+00	0.00E+00
	4750000000	-1.07E-01	-1.69E-01	-4.19E-01	8.18E-01	0.00E+00	0.00E+00	0.00E+00	0.00E+00
	4800000000	-1.30E-01	-1.64E-03	-6.77E-01	7.39E-01	0.00E+00	0.00E+00	0.00E+00	0.00E+00
	4850000000	5.77E-02	1.32E-01	-9.14E-01	7.17E-01	0.00E+00	0.00E+00	0.00E+00	0.00E+00
	4900000000	2.51E-01	2.62E-03	-1.02E+00	6.81E-01	0.00E+00	0.00E+00	0.00E+00	0.00E+00
	4950000000	1.94E-01	-1.92E-01	-1.03E+00	5.54E-01	0.00E+00	0.00E+00	0.00E+00	0.00E+00
	5000000000	1.77E-02	-1.63E-01	-1.06E+00	3.67E-01	0.00E+00	0.00E+00	0.00E+00	0.00E+00
	5050000000	5.31E-02	1.19E-02	-1.08E+00	8.11E-02	0.00E+00	0.00E+00	0.00E+00	0.00E+00
	5100000000	2.55E-01	-2.06E-02	-1.08E+00	-1.73E-02	0.00E+00	0.00E+00	0.00E+00	0.00E+00
	5150000000	2.74E-01	-2.44E-01	-9.89E-01	-1.87E-01	0.00E+00	0.00E+00	0.00E+00	0.00E+00
	5200000000	7.02E-02	-3.48E-01	-8.74E-01	-3.56E-01	0.00E+00	0.00E+00	0.00E+00	0.00E+00
	5250000000	-7.51E-02	-2.34E-01	-7.48E-01	-5.31E-01	0.00E+00	0.00E+00	0.00E+00	0.00E+00
	5300000000	-3.47E-02	-1.48E-01	-6.10E-01	-6.72E-01	0.00E+00	0.00E+00	0.00E+00	0.00E+00
	5350000000	-5.63E-02	-1.87E-01	-4.64E-01	-7.30E-01	0.00E+00	0.00E+00	0.00E+00	0.00E+00
	5400000000	-1.60E-01	-1.10E-01	-2.50E-01	-7.90E-01	0.00E+00	0.00E+00	0.00E+00	0.00E+00
	5450000000	-9.70E-02	7.36E-02	-7.63E-02	-8.40E-01	0.00E+00	0.00E+00	0.00E+00	0.00E+00
	5500000000	1.27E-01	6.44E-02	5.70E-02	-8.04E-01	0.00E+00	0.00E+00	0.00E+00	0.00E+00
	5550000000	1.84E-01	-1.31E-01	2.26E-01	-6.92E-01	0.00E+00	0.00E+00	0.00E+00	0.00E+00
	5600000000	4.48E-02	-2.02E-01	3.87E-01	-5.63E-01	0.00E+00	0.00E+00	0.00E+00	0.00E+00
	5650000000	4.21E-02	-1.38E-01	5.44E-01	-4.14E-01	0.00E+00	0.00E+00	0.00E+00	0.00E+00
	5700000000	8.93E-02	-1.46E-01	6.54E-01	-2.80E-01	0.00E+00	0.00E+00	0.00E+00	0.00E+00
	5750000000	1.23E-01	-2.31E-01	7.06E-01	-1.21E-01	0.00E+00	0.00E+00	0.00E+00	0.00E+00
	5800000000	5.82E-02	-3.25E-01	7.30E-01	4.44E-02	0.00E+00	0.00E+00	0.00E+00	0.00E+00
	5850000000	-6.05E-02	-3.19E-01	7.02E-01	2.09E-01	0.00E+00	0.00E+00	0.00E+00	0.00E+00
	5900000000	-7.90E-02	-2.24E-01	6.61E-01	3.76E-01	0.00E+00	0.00E+00	0.00E+00	0.00E+00
	5950000000	-9.07E-03	-2.37E-01	5.99E-01	4.84E-01	0.00E+00	0.00E+00	0.00E+00	0.00E+00
	6000000000	-1.19E-01	-2.81E-01	7.40E-01	3.57E-02	0.00E+00	0.00E+00	0.00E+00	0.00E+00
