! NanoVNA-App									
! Date: 2024-03-21 17:11:40									
! Start: 1GHz Stop: 6GHz Points: 101									
! S-Parameter data: F S11 S21 S12 S22									
# Hz S RI R 50									
!	Frequency	S11_Real	S11_Imag	S21_Real	S21_Imag	S12_Real	S12_Imag	S22_Real	S22_Imag
	1000000000	1.20E-01	-2.22E-02	-5.59E-01	-8.74E-01	0.00E+00	0.00E+00	0.00E+00	0.00E+00
	1050000000	5.21E-02	-2.12E-02	-3.79E-01	-9.62E-01	0.00E+00	0.00E+00	0.00E+00	0.00E+00
	1100000000	4.99E-02	-1.12E-02	-1.73E-01	-1.02E+00	0.00E+00	0.00E+00	0.00E+00	0.00E+00
	1150000000	2.93E-02	-4.78E-02	3.28E-02	-1.03E+00	0.00E+00	0.00E+00	0.00E+00	0.00E+00
	1200000000	-5.23E-02	-3.73E-02	2.39E-01	-9.90E-01	0.00E+00	0.00E+00	0.00E+00	0.00E+00
	1250000000	-7.98E-02	6.65E-02	4.44E-01	-9.11E-01	0.00E+00	0.00E+00	0.00E+00	0.00E+00
	1300000000	1.34E-02	1.35E-01	6.26E-01	-8.05E-01	0.00E+00	0.00E+00	0.00E+00	0.00E+00
	1350000000	9.90E-02	6.66E-02	7.69E-01	-6.59E-01	0.00E+00	0.00E+00	0.00E+00	0.00E+00
	1400000000	7.15E-02	5.09E-03	8.97E-01	-4.89E-01	0.00E+00	0.00E+00	0.00E+00	0.00E+00
	1450000000	1.71E-02	2.39E-02	9.72E-01	-3.06E-01	0.00E+00	0.00E+00	0.00E+00	0.00E+00
	1500000000	5.41E-02	6.47E-02	1.00E+00	-1.06E-01	0.00E+00	0.00E+00	0.00E+00	0.00E+00
	1550000000	9.75E-02	4.76E-03	9.92E-01	9.63E-02	0.00E+00	0.00E+00	0.00E+00	0.00E+00
	1600000000	1.39E-02	-6.00E-02	9.48E-01	2.88E-01	0.00E+00	0.00E+00	0.00E+00	0.00E+00
	1650000000	-9.41E-02	3.36E-02	8.62E-01	4.61E-01	0.00E+00	0.00E+00	0.00E+00	0.00E+00
	1700000000	-2.76E-02	1.93E-01	7.36E-01	6.03E-01	0.00E+00	0.00E+00	0.00E+00	0.00E+00
	1750000000	1.56E-01	1.96E-01	5.79E-01	7.37E-01	0.00E+00	0.00E+00	0.00E+00	0.00E+00
	1800000000	2.33E-01	4.31E-02	4.28E-01	8.46E-01	0.00E+00	0.00E+00	0.00E+00	0.00E+00
	1850000000	1.51E-01	-6.74E-02	2.73E-01	9.01E-01	0.00E+00	0.00E+00	0.00E+00	0.00E+00
	1900000000	6.80E-02	-5.00E-02	1.29E-01	9.16E-01	0.00E+00	0.00E+00	0.00E+00	0.00E+00
	1950000000	6.13E-02	-2.05E-02	1.30E-02	8.95E-01	0.00E+00	0.00E+00	0.00E+00	0.00E+00
	2000000000	8.34E-02	-2.89E-02	-4.11E-02	8.13E-01	0.00E+00	0.00E+00	0.00E+00	0.00E+00
	2050000000	5.33E-02	-2.07E-01	-3.70E-02	5.56E-01	0.00E+00	0.00E+00	0.00E+00	0.00E+00
	2100000000	-4.02E-01	-3.81E-02	-2.92E-01	2.05E-01	0.00E+00	0.00E+00	0.00E+00	0.00E+00
	2150000000	-1.98E-01	4.68E-01	-5.07E-01	7.21E-02	0.00E+00	0.00E+00	0.00E+00	0.00E+00
	2200000000	2.59E-01	4.87E-01	-6.11E-01	-4.39E-02	0.00E+00	0.00E+00	0.00E+00	0.00E+00
	2250000000	5.10E-01	1.87E-01	-6.49E-01	-1.57E-01	0.00E+00	0.00E+00	0.00E+00	0.00E+00
	2300000000	4.66E-01	-1.54E-01	-6.25E-01	-2.66E-01	0.00E+00	0.00E+00	0.00E+00	0.00E+00
	2350000000	2.25E-01	-3.44E-01	-5.59E-01	-3.77E-01	0.00E+00	0.00E+00	0.00E+00	0.00E+00
	2400000000	-6.41E-02	-3.24E-01	-4.76E-01	-4.70E-01	0.00E+00	0.00E+00	0.00E+00	0.00E+00
	2450000000	-2.40E-01	-1.04E-01	-3.89E-01	-5.34E-01	0.00E+00	0.00E+00	0.00E+00	0.00E+00
	2500000000	-1.43E-01	1.19E-01	-3.25E-01	-5.03E-01	0.00E+00	0.00E+00	0.00E+00	0.00E+00
	2550000000	-1.84E-01	1.43E-01	-4.98E-02	-3.47E-01	0.00E+00	0.00E+00	0.00E+00	0.00E+00
	2600000000	3.42E-02	3.93E-01	1.92E-01	-4.12E-01	0.00E+00	0.00E+00	0.00E+00	0.00E+00
	2650000000	3.48E-01	2.81E-01	3.35E-01	-3.95E-01	0.00E+00	0.00E+00	0.00E+00	0.00E+00
	2700000000	4.27E-01	-1.30E-02	4.59E-01	-3.21E-01	0.00E+00	0.00E+00	0.00E+00	0.00E+00
	2750000000	2.74E-01	-2.30E-01	5.69E-01	-2.10E-01	0.00E+00	0.00E+00	0.00E+00	0.00E+00
	2800000000	4.80E-02	-2.48E-01	6.59E-01	-8.47E-02	0.00E+00	0.00E+00	0.00E+00	0.00E+00
	2850000000	-8.80E-02	-1.14E-01	7.09E-01	3.03E-02	0.00E+00	0.00E+00	0.00E+00	0.00E+00
	2900000000	-7.39E-02	3.81E-02	6.95E-01	1.55E-01	0.00E+00	0.00E+00	0.00E+00	0.00E+00
	2950000000	5.85E-03	1.00E-01	6.25E-01	3.27E-01	0.00E+00	0.00E+00	0.00E+00	0.00E+00
	3000000000	1.16E-01	1.44E-01	5.84E-01	4.78E-01	0.00E+00	0.00E+00	0.00E+00	0.00E+00
	3050000000	2.34E-01	6.60E-02	4.91E-01	5.97E-01	0.00E+00	0.00E+00	0.00E+00	0.00E+00
	3100000000	2.43E-01	-7.33E-02	3.65E-01	7.09E-01	0.00E+00	0.00E+00	0.00E+00	0.00E+00
	3150000000	1.42E-01	-1.56E-01	2.41E-01	7.97E-01	0.00E+00	0.00E+00	0.00E+00	0.00E+00
	3200000000	3.61E-02	-1.22E-01	1.08E-01	8.24E-01	0.00E+00	0.00E+00	0.00E+00	0.00E+00
	3250000000	1.41E-02	-3.57E-02	-5.41E-02	8.16E-01	0.00E+00	0.00E+00	0.00E+00	0.00E+00
	3300000000	5.40E-02	1.59E-02	-2.11E-01	7.85E-01	0.00E+00	0.00E+00	0.00E+00	0.00E+00
	3350000000	9.33E-02	2.21E-02	-3.56E-01	7.25E-01	0.00E+00	0.00E+00	0.00E+00	0.00E+00
	3400000000	9.86E-02	3.18E-02	-4.70E-01	6.47E-01	0.00E+00	0.00E+00	0.00E+00	0.00E+00
	3450000000	1.88E-01	9.66E-02	-4.96E-01	5.08E-01	0.00E+00	0.00E+00	0.00E+00	0.00E+00
	3500000000	2.82E-01	-7.09E-03	-5.58E-01	2.84E-01	0.00E+00	0.00E+00	0.00E+00	0.00E+00
	3550000000	2.73E-01	-1.55E-01	-6.32E-01	3.84E-02	0.00E+00	0.00E+00	0.00E+00	0.00E+00
	3600000000	1.48E-01	-2.02E-01	-7.06E-01	-1.34E-01	0.00E+00	0.00E+00	0.00E+00	0.00E+00
	3650000000	7.21E-02	-1.73E-01	-7.00E-01	-2.90E-01	0.00E+00	0.00E+00	0.00E+00	0.00E+00
	3700000000	1.88E-02	-1.32E-01	-6.50E-01	-4.62E-01	0.00E+00	0.00E+00	0.00E+00	0.00E+00
	3750000000	-1.43E-02	-5.77E-02	-5.83E-01	-6.11E-01	0.00E+00	0.00E+00	0.00E+00	0.00E+00
	3800000000	1.78E-02	2.45E-02	-4.78E-01	-7.11E-01	0.00E+00	0.00E+00	0.00E+00	0.00E+00
	3850000000	8.17E-02	4.23E-02	-3.14E-01	-7.87E-01	0.00E+00	0.00E+00	0.00E+00	0.00E+00
	3900000000	1.00E-01	4.10E-02	-1.40E-01	-8.47E-01	0.00E+00	0.00E+00	0.00E+00	0.00E+00
	3950000000	1.43E-01	8.74E-02	2.45E-02	-8.47E-01	0.00E+00	0.00E+00	0.00E+00	0.00E+00
	4000000000	2.78E-01	7.83E-02	2.31E-01	-8.00E-01	0.00E+00	0.00E+00	0.00E+00	0.00E+00
	4050000000	3.79E-01	-8.70E-02	4.32E-01	-7.55E-01	0.00E+00	0.00E+00	0.00E+00	0.00E+00
	4100000000	3.01E-01	-2.97E-01	5.80E-01	-6.79E-01	0.00E+00	0.00E+00	0.00E+00	0.00E+00
	4150000000	8.16E-02	-3.75E-01	7.08E-01	-5.37E-01	0.00E+00	0.00E+00	0.00E+00	0.00E+00
	4200000000	-9.42E-02	-2.69E-01	8.40E-01	-3.84E-01	0.00E+00	0.00E+00	0.00E+00	0.00E+00
	4250000000	-1.34E-01	-1.32E-01	9.03E-01	-2.46E-01	0.00E+00	0.00E+00	0.00E+00	0.00E+00
	4300000000	-1.49E-01	-3.12E-02	9.06E-01	-5.95E-02	0.00E+00	0.00E+00	0.00E+00	0.00E+00
	4350000000	-1.20E-01	1.38E-01	8.91E-01	1.24E-01	0.00E+00	0.00E+00	0.00E+00	0.00E+00
	4400000000	9.63E-02	2.77E-01	8.15E-01	2.88E-01	0.00E+00	0.00E+00	0.00E+00	0.00E+00
	4450000000	3.80E-01	1.67E-01	6.88E-01	4.62E-01	0.00E+00	0.00E+00	0.00E+00	0.00E+00
	4500000000	4.66E-01	-1.24E-01	5.58E-01	6.24E-01	0.00E+00	0.00E+00	0.00E+00	0.00E+00
	4550000000	3.09E-01	-3.47E-01	3.90E-01	7.34E-01	0.00E+00	0.00E+00	0.00E+00	0.00E+00
	4600000000	1.02E-01	-3.50E-01	1.92E-01	8.27E-01	0.00E+00	0.00E+00	0.00E+00	0.00E+00
	4650000000	3.72E-02	-2.99E-01	-2.17E-03	8.68E-01	0.00E+00	0.00E+00	0.00E+00	0.00E+00
	4700000000	-6.30E-02	-2.42E-01	-2.31E-01	8.82E-01	0.00E+00	0.00E+00	0.00E+00	0.00E+00
	4750000000	-1.05E-01	-1.68E-01	-4.17E-01	8.17E-01	0.00E+00	0.00E+00	0.00E+00	0.00E+00
	4800000000	-1.28E-01	-2.13E-03	-6.75E-01	7.40E-01	0.00E+00	0.00E+00	0.00E+00	0.00E+00
	4850000000	6.00E-02	1.29E-01	-9.09E-01	7.21E-01	0.00E+00	0.00E+00	0.00E+00	0.00E+00
	4900000000	2.50E-01	-1.91E-03	-1.02E+00	6.82E-01	0.00E+00	0.00E+00	0.00E+00	0.00E+00
	4950000000	1.90E-01	-1.94E-01	-1.03E+00	5.56E-01	0.00E+00	0.00E+00	0.00E+00	0.00E+00
	5000000000	1.39E-02	-1.61E-01	-1.05E+00	3.67E-01	0.00E+00	0.00E+00	0.00E+00	0.00E+00
	5050000000	5.25E-02	1.58E-02	-1.08E+00	8.82E-02	0.00E+00	0.00E+00	0.00E+00	0.00E+00
	5100000000	2.57E-01	-1.84E-02	-1.08E+00	-8.43E-03	0.00E+00	0.00E+00	0.00E+00	0.00E+00
	5150000000	2.77E-01	-2.44E-01	-9.87E-01	-1.80E-01	0.00E+00	0.00E+00	0.00E+00	0.00E+00
	5200000000	7.46E-02	-3.50E-01	-8.74E-01	-3.51E-01	0.00E+00	0.00E+00	0.00E+00	0.00E+00
	5250000000	-7.16E-02	-2.36E-01	-7.50E-01	-5.26E-01	0.00E+00	0.00E+00	0.00E+00	0.00E+00
	5300000000	-3.57E-02	-1.50E-01	-6.12E-01	-6.64E-01	0.00E+00	0.00E+00	0.00E+00	0.00E+00
	5350000000	-5.77E-02	-1.91E-01	-4.64E-01	-7.28E-01	0.00E+00	0.00E+00	0.00E+00	0.00E+00
	5400000000	-1.62E-01	-1.09E-01	-2.53E-01	-7.87E-01	0.00E+00	0.00E+00	0.00E+00	0.00E+00
	5450000000	-9.67E-02	7.67E-02	-8.16E-02	-8.38E-01	0.00E+00	0.00E+00	0.00E+00	0.00E+00
	5500000000	1.30E-01	6.51E-02	4.96E-02	-8.02E-01	0.00E+00	0.00E+00	0.00E+00	0.00E+00
	5550000000	1.88E-01	-1.32E-01	2.13E-01	-6.96E-01	0.00E+00	0.00E+00	0.00E+00	0.00E+00
	5600000000	4.92E-02	-2.03E-01	3.85E-01	-5.62E-01	0.00E+00	0.00E+00	0.00E+00	0.00E+00
	5650000000	4.28E-02	-1.39E-01	5.37E-01	-4.17E-01	0.00E+00	0.00E+00	0.00E+00	0.00E+00
	5700000000	8.87E-02	-1.50E-01	6.49E-01	-2.84E-01	0.00E+00	0.00E+00	0.00E+00	0.00E+00
	5750000000	1.24E-01	-2.34E-01	7.04E-01	-1.22E-01	0.00E+00	0.00E+00	0.00E+00	0.00E+00
	5800000000	5.68E-02	-3.26E-01	7.28E-01	4.19E-02	0.00E+00	0.00E+00	0.00E+00	0.00E+00
	5850000000	-6.05E-02	-3.17E-01	7.00E-01	2.06E-01	0.00E+00	0.00E+00	0.00E+00	0.00E+00
	5900000000	-7.46E-02	-2.21E-01	6.60E-01	3.72E-01	0.00E+00	0.00E+00	0.00E+00	0.00E+00
	5950000000	-3.69E-03	-2.38E-01	5.97E-01	4.82E-01	0.00E+00	0.00E+00	0.00E+00	0.00E+00
	6000000000	-1.16E-01	-2.82E-01	7.38E-01	2.93E-02	0.00E+00	0.00E+00	0.00E+00	0.00E+00
