! NanoVNA-App									
! Date: 2024-03-21 11:50:01									
! Start: 1GHz Stop: 6GHz Points: 101									
! S-Parameter data: F S11 S21 S12 S22									
# Hz S RI R 50									
!	Frequency	S11_Real	S11_Imag	S21_Real	S21_Imag	S12_Real	S12_Imag	S22_Real	S22_Imag
	1000000000	1.23E-01	-2.36E-02	-5.52E-01	-8.79E-01	0.00E+00	0.00E+00	0.00E+00	0.00E+00
	1050000000	5.34E-02	-2.25E-02	-3.71E-01	-9.65E-01	0.00E+00	0.00E+00	0.00E+00	0.00E+00
	1100000000	5.07E-02	-1.04E-02	-1.64E-01	-1.02E+00	0.00E+00	0.00E+00	0.00E+00	0.00E+00
	1150000000	3.15E-02	-4.56E-02	4.13E-02	-1.03E+00	0.00E+00	0.00E+00	0.00E+00	0.00E+00
	1200000000	-4.88E-02	-3.58E-02	2.48E-01	-9.87E-01	0.00E+00	0.00E+00	0.00E+00	0.00E+00
	1250000000	-7.68E-02	6.76E-02	4.53E-01	-9.06E-01	0.00E+00	0.00E+00	0.00E+00	0.00E+00
	1300000000	1.68E-02	1.36E-01	6.31E-01	-7.98E-01	0.00E+00	0.00E+00	0.00E+00	0.00E+00
	1350000000	1.03E-01	6.61E-02	7.72E-01	-6.49E-01	0.00E+00	0.00E+00	0.00E+00	0.00E+00
	1400000000	7.54E-02	5.31E-03	9.02E-01	-4.79E-01	0.00E+00	0.00E+00	0.00E+00	0.00E+00
	1450000000	1.88E-02	2.19E-02	9.74E-01	-2.94E-01	0.00E+00	0.00E+00	0.00E+00	0.00E+00
	1500000000	5.26E-02	6.38E-02	1.00E+00	-9.91E-02	0.00E+00	0.00E+00	0.00E+00	0.00E+00
	1550000000	9.45E-02	6.57E-03	9.88E-01	1.05E-01	0.00E+00	0.00E+00	0.00E+00	0.00E+00
	1600000000	1.17E-02	-5.45E-02	9.39E-01	2.94E-01	0.00E+00	0.00E+00	0.00E+00	0.00E+00
	1650000000	-9.26E-02	4.21E-02	8.55E-01	4.61E-01	0.00E+00	0.00E+00	0.00E+00	0.00E+00
	1700000000	-2.13E-02	2.00E-01	7.25E-01	6.06E-01	0.00E+00	0.00E+00	0.00E+00	0.00E+00
	1750000000	1.65E-01	1.97E-01	5.68E-01	7.36E-01	0.00E+00	0.00E+00	0.00E+00	0.00E+00
	1800000000	2.41E-01	3.80E-02	4.18E-01	8.43E-01	0.00E+00	0.00E+00	0.00E+00	0.00E+00
	1850000000	1.52E-01	-7.72E-02	2.64E-01	8.96E-01	0.00E+00	0.00E+00	0.00E+00	0.00E+00
	1900000000	5.99E-02	-5.80E-02	1.17E-01	9.09E-01	0.00E+00	0.00E+00	0.00E+00	0.00E+00
	1950000000	4.80E-02	-1.95E-02	2.63E-03	8.86E-01	0.00E+00	0.00E+00	0.00E+00	0.00E+00
	2000000000	7.20E-02	-1.75E-02	-5.26E-02	8.04E-01	0.00E+00	0.00E+00	0.00E+00	0.00E+00
	2050000000	5.75E-02	-1.86E-01	-3.97E-02	5.62E-01	0.00E+00	0.00E+00	0.00E+00	0.00E+00
	2100000000	-3.89E-01	-3.52E-02	-2.76E-01	1.99E-01	0.00E+00	0.00E+00	0.00E+00	0.00E+00
	2150000000	-1.86E-01	4.68E-01	-4.91E-01	6.13E-02	0.00E+00	0.00E+00	0.00E+00	0.00E+00
	2200000000	2.70E-01	4.79E-01	-5.91E-01	-5.54E-02	0.00E+00	0.00E+00	0.00E+00	0.00E+00
	2250000000	5.14E-01	1.73E-01	-6.25E-01	-1.66E-01	0.00E+00	0.00E+00	0.00E+00	0.00E+00
	2300000000	4.58E-01	-1.71E-01	-5.97E-01	-2.75E-01	0.00E+00	0.00E+00	0.00E+00	0.00E+00
	2350000000	2.00E-01	-3.50E-01	-5.26E-01	-3.82E-01	0.00E+00	0.00E+00	0.00E+00	0.00E+00
	2400000000	-8.76E-02	-3.05E-01	-4.38E-01	-4.74E-01	0.00E+00	0.00E+00	0.00E+00	0.00E+00
	2450000000	-2.37E-01	-6.90E-02	-3.49E-01	-5.34E-01	0.00E+00	0.00E+00	0.00E+00	0.00E+00
	2500000000	-1.16E-01	1.38E-01	-2.78E-01	-5.04E-01	0.00E+00	0.00E+00	0.00E+00	0.00E+00
	2550000000	-1.39E-01	1.27E-01	-2.40E-02	-3.39E-01	0.00E+00	0.00E+00	0.00E+00	0.00E+00
	2600000000	4.18E-02	3.60E-01	2.38E-01	-3.91E-01	0.00E+00	0.00E+00	0.00E+00	0.00E+00
	2650000000	3.30E-01	2.58E-01	3.82E-01	-3.74E-01	0.00E+00	0.00E+00	0.00E+00	0.00E+00
	2700000000	4.00E-01	-1.31E-02	5.06E-01	-2.93E-01	0.00E+00	0.00E+00	0.00E+00	0.00E+00
	2750000000	2.47E-01	-2.11E-01	6.10E-01	-1.88E-01	0.00E+00	0.00E+00	0.00E+00	0.00E+00
	2800000000	4.31E-02	-2.09E-01	6.89E-01	-6.00E-02	0.00E+00	0.00E+00	0.00E+00	0.00E+00
	2850000000	-5.88E-02	-8.97E-02	7.37E-01	6.08E-02	0.00E+00	0.00E+00	0.00E+00	0.00E+00
	2900000000	-3.98E-02	2.96E-02	7.17E-01	1.87E-01	0.00E+00	0.00E+00	0.00E+00	0.00E+00
	2950000000	1.69E-02	7.14E-02	6.40E-01	3.60E-01	0.00E+00	0.00E+00	0.00E+00	0.00E+00
	3000000000	1.01E-01	1.23E-01	5.96E-01	5.17E-01	0.00E+00	0.00E+00	0.00E+00	0.00E+00
	3050000000	2.12E-01	6.56E-02	4.94E-01	6.30E-01	0.00E+00	0.00E+00	0.00E+00	0.00E+00
	3100000000	2.28E-01	-6.20E-02	3.59E-01	7.38E-01	0.00E+00	0.00E+00	0.00E+00	0.00E+00
	3150000000	1.38E-01	-1.39E-01	2.29E-01	8.21E-01	0.00E+00	0.00E+00	0.00E+00	0.00E+00
	3200000000	4.44E-02	-1.07E-01	8.71E-02	8.48E-01	0.00E+00	0.00E+00	0.00E+00	0.00E+00
	3250000000	2.78E-02	-3.28E-02	-7.65E-02	8.35E-01	0.00E+00	0.00E+00	0.00E+00	0.00E+00
	3300000000	6.09E-02	8.84E-03	-2.38E-01	7.98E-01	0.00E+00	0.00E+00	0.00E+00	0.00E+00
	3350000000	9.03E-02	1.40E-02	-3.81E-01	7.35E-01	0.00E+00	0.00E+00	0.00E+00	0.00E+00
	3400000000	9.40E-02	3.00E-02	-4.96E-01	6.50E-01	0.00E+00	0.00E+00	0.00E+00	0.00E+00
	3450000000	1.83E-01	9.58E-02	-5.21E-01	5.05E-01	0.00E+00	0.00E+00	0.00E+00	0.00E+00
	3500000000	2.75E-01	-7.63E-03	-5.82E-01	2.74E-01	0.00E+00	0.00E+00	0.00E+00	0.00E+00
	3550000000	2.66E-01	-1.56E-01	-6.55E-01	2.48E-02	0.00E+00	0.00E+00	0.00E+00	0.00E+00
	3600000000	1.42E-01	-1.95E-01	-7.24E-01	-1.51E-01	0.00E+00	0.00E+00	0.00E+00	0.00E+00
	3650000000	7.32E-02	-1.67E-01	-7.14E-01	-3.06E-01	0.00E+00	0.00E+00	0.00E+00	0.00E+00
	3700000000	2.40E-02	-1.31E-01	-6.57E-01	-4.79E-01	0.00E+00	0.00E+00	0.00E+00	0.00E+00
	3750000000	-1.01E-02	-6.18E-02	-5.85E-01	-6.28E-01	0.00E+00	0.00E+00	0.00E+00	0.00E+00
	3800000000	1.99E-02	1.93E-02	-4.75E-01	-7.29E-01	0.00E+00	0.00E+00	0.00E+00	0.00E+00
	3850000000	8.31E-02	3.51E-02	-3.09E-01	-8.03E-01	0.00E+00	0.00E+00	0.00E+00	0.00E+00
	3900000000	9.56E-02	3.17E-02	-1.31E-01	-8.62E-01	0.00E+00	0.00E+00	0.00E+00	0.00E+00
	3950000000	1.32E-01	8.46E-02	3.69E-02	-8.60E-01	0.00E+00	0.00E+00	0.00E+00	0.00E+00
	4000000000	2.71E-01	8.45E-02	2.44E-01	-8.08E-01	0.00E+00	0.00E+00	0.00E+00	0.00E+00
	4050000000	3.81E-01	-7.86E-02	4.47E-01	-7.57E-01	0.00E+00	0.00E+00	0.00E+00	0.00E+00
	4100000000	3.09E-01	-2.95E-01	5.90E-01	-6.81E-01	0.00E+00	0.00E+00	0.00E+00	0.00E+00
	4150000000	8.97E-02	-3.77E-01	7.17E-01	-5.33E-01	0.00E+00	0.00E+00	0.00E+00	0.00E+00
	4200000000	-8.91E-02	-2.75E-01	8.48E-01	-3.74E-01	0.00E+00	0.00E+00	0.00E+00	0.00E+00
	4250000000	-1.34E-01	-1.37E-01	9.10E-01	-2.29E-01	0.00E+00	0.00E+00	0.00E+00	0.00E+00
	4300000000	-1.52E-01	-3.37E-02	9.10E-01	-4.54E-02	0.00E+00	0.00E+00	0.00E+00	0.00E+00
	4350000000	-1.25E-01	1.40E-01	8.93E-01	1.41E-01	0.00E+00	0.00E+00	0.00E+00	0.00E+00
	4400000000	9.49E-02	2.84E-01	8.15E-01	3.04E-01	0.00E+00	0.00E+00	0.00E+00	0.00E+00
	4450000000	3.83E-01	1.74E-01	6.84E-01	4.77E-01	0.00E+00	0.00E+00	0.00E+00	0.00E+00
	4500000000	4.70E-01	-1.20E-01	5.46E-01	6.38E-01	0.00E+00	0.00E+00	0.00E+00	0.00E+00
	4550000000	3.14E-01	-3.44E-01	3.78E-01	7.43E-01	0.00E+00	0.00E+00	0.00E+00	0.00E+00
	4600000000	1.08E-01	-3.50E-01	1.76E-01	8.32E-01	0.00E+00	0.00E+00	0.00E+00	0.00E+00
	4650000000	3.58E-02	-3.03E-01	-2.30E-02	8.71E-01	0.00E+00	0.00E+00	0.00E+00	0.00E+00
	4700000000	-7.02E-02	-2.41E-01	-2.55E-01	8.78E-01	0.00E+00	0.00E+00	0.00E+00	0.00E+00
	4750000000	-1.12E-01	-1.65E-01	-4.40E-01	8.12E-01	0.00E+00	0.00E+00	0.00E+00	0.00E+00
	4800000000	-1.35E-01	6.19E-03	-6.95E-01	7.27E-01	0.00E+00	0.00E+00	0.00E+00	0.00E+00
	4850000000	5.46E-02	1.40E-01	-9.34E-01	6.98E-01	0.00E+00	0.00E+00	0.00E+00	0.00E+00
	4900000000	2.51E-01	1.10E-02	-1.04E+00	6.61E-01	0.00E+00	0.00E+00	0.00E+00	0.00E+00
	4950000000	1.95E-01	-1.85E-01	-1.05E+00	5.34E-01	0.00E+00	0.00E+00	0.00E+00	0.00E+00
	5000000000	2.04E-02	-1.63E-01	-1.07E+00	3.41E-01	0.00E+00	0.00E+00	0.00E+00	0.00E+00
	5050000000	4.99E-02	8.00E-03	-1.08E+00	4.79E-02	0.00E+00	0.00E+00	0.00E+00	0.00E+00
	5100000000	2.47E-01	-2.20E-02	-1.08E+00	-4.86E-02	0.00E+00	0.00E+00	0.00E+00	0.00E+00
	5150000000	2.65E-01	-2.43E-01	-9.88E-01	-2.18E-01	0.00E+00	0.00E+00	0.00E+00	0.00E+00
	5200000000	6.49E-02	-3.45E-01	-8.68E-01	-3.89E-01	0.00E+00	0.00E+00	0.00E+00	0.00E+00
	5250000000	-8.07E-02	-2.29E-01	-7.35E-01	-5.59E-01	0.00E+00	0.00E+00	0.00E+00	0.00E+00
	5300000000	-3.84E-02	-1.41E-01	-5.89E-01	-6.98E-01	0.00E+00	0.00E+00	0.00E+00	0.00E+00
	5350000000	-5.49E-02	-1.84E-01	-4.41E-01	-7.53E-01	0.00E+00	0.00E+00	0.00E+00	0.00E+00
	5400000000	-1.59E-01	-1.13E-01	-2.23E-01	-8.03E-01	0.00E+00	0.00E+00	0.00E+00	0.00E+00
	5450000000	-1.04E-01	7.08E-02	-4.65E-02	-8.48E-01	0.00E+00	0.00E+00	0.00E+00	0.00E+00
	5500000000	1.20E-01	6.82E-02	8.92E-02	-8.09E-01	0.00E+00	0.00E+00	0.00E+00	0.00E+00
	5550000000	1.82E-01	-1.27E-01	2.55E-01	-6.89E-01	0.00E+00	0.00E+00	0.00E+00	0.00E+00
	5600000000	4.38E-02	-2.04E-01	4.14E-01	-5.53E-01	0.00E+00	0.00E+00	0.00E+00	0.00E+00
	5650000000	3.29E-02	-1.33E-01	5.62E-01	-4.01E-01	0.00E+00	0.00E+00	0.00E+00	0.00E+00
	5700000000	8.75E-02	-1.39E-01	6.68E-01	-2.61E-01	0.00E+00	0.00E+00	0.00E+00	0.00E+00
	5750000000	1.25E-01	-2.27E-01	7.17E-01	-9.84E-02	0.00E+00	0.00E+00	0.00E+00	0.00E+00
	5800000000	5.39E-02	-3.21E-01	7.34E-01	6.93E-02	0.00E+00	0.00E+00	0.00E+00	0.00E+00
	5850000000	-6.60E-02	-3.16E-01	7.00E-01	2.35E-01	0.00E+00	0.00E+00	0.00E+00	0.00E+00
	5900000000	-8.70E-02	-2.21E-01	6.54E-01	4.01E-01	0.00E+00	0.00E+00	0.00E+00	0.00E+00
	5950000000	-1.79E-02	-2.30E-01	5.84E-01	5.14E-01	0.00E+00	0.00E+00	0.00E+00	0.00E+00
	6000000000	-1.31E-01	-2.66E-01	7.47E-01	5.70E-02	0.00E+00	0.00E+00	0.00E+00	0.00E+00
