! NanoVNA-App									
! Date: 2024-03-21 11:35:15									
! Start: 1GHz Stop: 6GHz Points: 101									
! S-Parameter data: F S11 S21 S12 S22									
# Hz S RI R 50									
!	Frequency	S11_Real	S11_Imag	S21_Real	S21_Imag	S12_Real	S12_Imag	S22_Real	S22_Imag
	1000000000	1.24E-01	-2.41E-02	-5.49E-01	-8.79E-01	0.00E+00	0.00E+00	0.00E+00	0.00E+00
	1050000000	5.33E-02	-2.31E-02	-3.68E-01	-9.65E-01	0.00E+00	0.00E+00	0.00E+00	0.00E+00
	1100000000	5.01E-02	-1.02E-02	-1.61E-01	-1.02E+00	0.00E+00	0.00E+00	0.00E+00	0.00E+00
	1150000000	3.11E-02	-4.47E-02	4.38E-02	-1.03E+00	0.00E+00	0.00E+00	0.00E+00	0.00E+00
	1200000000	-4.87E-02	-3.45E-02	2.49E-01	-9.86E-01	0.00E+00	0.00E+00	0.00E+00	0.00E+00
	1250000000	-7.58E-02	6.88E-02	4.54E-01	-9.04E-01	0.00E+00	0.00E+00	0.00E+00	0.00E+00
	1300000000	1.83E-02	1.37E-01	6.32E-01	-7.95E-01	0.00E+00	0.00E+00	0.00E+00	0.00E+00
	1350000000	1.04E-01	6.53E-02	7.71E-01	-6.47E-01	0.00E+00	0.00E+00	0.00E+00	0.00E+00
	1400000000	7.62E-02	4.60E-03	9.00E-01	-4.75E-01	0.00E+00	0.00E+00	0.00E+00	0.00E+00
	1450000000	1.90E-02	2.05E-02	9.72E-01	-2.93E-01	0.00E+00	0.00E+00	0.00E+00	0.00E+00
	1500000000	5.11E-02	6.26E-02	9.98E-01	-9.59E-02	0.00E+00	0.00E+00	0.00E+00	0.00E+00
	1550000000	9.17E-02	6.81E-03	9.85E-01	1.06E-01	0.00E+00	0.00E+00	0.00E+00	0.00E+00
	1600000000	9.32E-03	-5.16E-02	9.36E-01	2.94E-01	0.00E+00	0.00E+00	0.00E+00	0.00E+00
	1650000000	-9.22E-02	4.60E-02	8.49E-01	4.64E-01	0.00E+00	0.00E+00	0.00E+00	0.00E+00
	1700000000	-1.78E-02	2.02E-01	7.19E-01	6.05E-01	0.00E+00	0.00E+00	0.00E+00	0.00E+00
	1750000000	1.69E-01	1.97E-01	5.63E-01	7.34E-01	0.00E+00	0.00E+00	0.00E+00	0.00E+00
	1800000000	2.43E-01	3.48E-02	4.12E-01	8.40E-01	0.00E+00	0.00E+00	0.00E+00	0.00E+00
	1850000000	1.52E-01	-8.15E-02	2.61E-01	8.92E-01	0.00E+00	0.00E+00	0.00E+00	0.00E+00
	1900000000	5.65E-02	-6.19E-02	1.17E-01	9.04E-01	0.00E+00	0.00E+00	0.00E+00	0.00E+00
	1950000000	4.22E-02	-2.07E-02	1.97E-03	8.78E-01	0.00E+00	0.00E+00	0.00E+00	0.00E+00
	2000000000	6.48E-02	-1.42E-02	-5.55E-02	7.98E-01	0.00E+00	0.00E+00	0.00E+00	0.00E+00
	2050000000	5.72E-02	-1.73E-01	-4.03E-02	5.63E-01	0.00E+00	0.00E+00	0.00E+00	0.00E+00
	2100000000	-3.83E-01	-3.28E-02	-2.64E-01	1.96E-01	0.00E+00	0.00E+00	0.00E+00	0.00E+00
	2150000000	-1.77E-01	4.65E-01	-4.80E-01	5.17E-02	0.00E+00	0.00E+00	0.00E+00	0.00E+00
	2200000000	2.75E-01	4.72E-01	-5.79E-01	-6.53E-02	0.00E+00	0.00E+00	0.00E+00	0.00E+00
	2250000000	5.14E-01	1.62E-01	-6.10E-01	-1.77E-01	0.00E+00	0.00E+00	0.00E+00	0.00E+00
	2300000000	4.49E-01	-1.81E-01	-5.80E-01	-2.84E-01	0.00E+00	0.00E+00	0.00E+00	0.00E+00
	2350000000	1.86E-01	-3.53E-01	-5.09E-01	-3.92E-01	0.00E+00	0.00E+00	0.00E+00	0.00E+00
	2400000000	-9.74E-02	-2.90E-01	-4.19E-01	-4.84E-01	0.00E+00	0.00E+00	0.00E+00	0.00E+00
	2450000000	-2.29E-01	-4.92E-02	-3.27E-01	-5.41E-01	0.00E+00	0.00E+00	0.00E+00	0.00E+00
	2500000000	-9.42E-02	1.43E-01	-2.59E-01	-5.11E-01	0.00E+00	0.00E+00	0.00E+00	0.00E+00
	2550000000	-1.26E-01	1.09E-01	-2.21E-04	-3.36E-01	0.00E+00	0.00E+00	0.00E+00	0.00E+00
	2600000000	3.84E-02	3.44E-01	2.68E-01	-3.91E-01	0.00E+00	0.00E+00	0.00E+00	0.00E+00
	2650000000	3.18E-01	2.49E-01	4.10E-01	-3.75E-01	0.00E+00	0.00E+00	0.00E+00	0.00E+00
	2700000000	3.87E-01	-1.33E-02	5.33E-01	-2.97E-01	0.00E+00	0.00E+00	0.00E+00	0.00E+00
	2750000000	2.40E-01	-1.99E-01	6.35E-01	-1.85E-01	0.00E+00	0.00E+00	0.00E+00	0.00E+00
	2800000000	4.72E-02	-2.00E-01	7.20E-01	-5.69E-02	0.00E+00	0.00E+00	0.00E+00	0.00E+00
	2850000000	-4.41E-02	-8.42E-02	7.57E-01	6.54E-02	0.00E+00	0.00E+00	0.00E+00	0.00E+00
	2900000000	-2.65E-02	2.26E-02	7.33E-01	1.95E-01	0.00E+00	0.00E+00	0.00E+00	0.00E+00
	2950000000	1.78E-02	5.80E-02	6.57E-01	3.64E-01	0.00E+00	0.00E+00	0.00E+00	0.00E+00
	3000000000	9.40E-02	1.16E-01	6.08E-01	5.26E-01	0.00E+00	0.00E+00	0.00E+00	0.00E+00
	3050000000	2.04E-01	6.55E-02	5.02E-01	6.39E-01	0.00E+00	0.00E+00	0.00E+00	0.00E+00
	3100000000	2.22E-01	-5.60E-02	3.62E-01	7.47E-01	0.00E+00	0.00E+00	0.00E+00	0.00E+00
	3150000000	1.37E-01	-1.31E-01	2.29E-01	8.30E-01	0.00E+00	0.00E+00	0.00E+00	0.00E+00
	3200000000	4.80E-02	-1.02E-01	8.81E-02	8.55E-01	0.00E+00	0.00E+00	0.00E+00	0.00E+00
	3250000000	3.30E-02	-3.17E-02	-7.92E-02	8.42E-01	0.00E+00	0.00E+00	0.00E+00	0.00E+00
	3300000000	6.39E-02	5.69E-03	-2.45E-01	8.04E-01	0.00E+00	0.00E+00	0.00E+00	0.00E+00
	3350000000	8.93E-02	1.23E-02	-3.90E-01	7.37E-01	0.00E+00	0.00E+00	0.00E+00	0.00E+00
	3400000000	9.30E-02	2.94E-02	-5.04E-01	6.51E-01	0.00E+00	0.00E+00	0.00E+00	0.00E+00
	3450000000	1.82E-01	9.45E-02	-5.29E-01	5.06E-01	0.00E+00	0.00E+00	0.00E+00	0.00E+00
	3500000000	2.73E-01	-1.14E-02	-5.93E-01	2.70E-01	0.00E+00	0.00E+00	0.00E+00	0.00E+00
	3550000000	2.58E-01	-1.55E-01	-6.65E-01	2.09E-02	0.00E+00	0.00E+00	0.00E+00	0.00E+00
	3600000000	1.39E-01	-1.90E-01	-7.33E-01	-1.49E-01	0.00E+00	0.00E+00	0.00E+00	0.00E+00
	3650000000	7.48E-02	-1.62E-01	-7.20E-01	-3.10E-01	0.00E+00	0.00E+00	0.00E+00	0.00E+00
	3700000000	2.70E-02	-1.30E-01	-6.61E-01	-4.86E-01	0.00E+00	0.00E+00	0.00E+00	0.00E+00
	3750000000	-7.16E-03	-6.38E-02	-5.88E-01	-6.34E-01	0.00E+00	0.00E+00	0.00E+00	0.00E+00
	3800000000	2.14E-02	1.44E-02	-4.78E-01	-7.33E-01	0.00E+00	0.00E+00	0.00E+00	0.00E+00
	3850000000	8.06E-02	2.98E-02	-3.07E-01	-8.10E-01	0.00E+00	0.00E+00	0.00E+00	0.00E+00
	3900000000	9.15E-02	2.94E-02	-1.31E-01	-8.68E-01	0.00E+00	0.00E+00	0.00E+00	0.00E+00
	3950000000	1.27E-01	8.67E-02	3.81E-02	-8.65E-01	0.00E+00	0.00E+00	0.00E+00	0.00E+00
	4000000000	2.71E-01	8.82E-02	2.43E-01	-8.13E-01	0.00E+00	0.00E+00	0.00E+00	0.00E+00
	4050000000	3.85E-01	-7.67E-02	4.49E-01	-7.60E-01	0.00E+00	0.00E+00	0.00E+00	0.00E+00
	4100000000	3.12E-01	-2.96E-01	5.92E-01	-6.81E-01	0.00E+00	0.00E+00	0.00E+00	0.00E+00
	4150000000	9.18E-02	-3.80E-01	7.21E-01	-5.32E-01	0.00E+00	0.00E+00	0.00E+00	0.00E+00
	4200000000	-8.92E-02	-2.77E-01	8.50E-01	-3.75E-01	0.00E+00	0.00E+00	0.00E+00	0.00E+00
	4250000000	-1.34E-01	-1.41E-01	9.14E-01	-2.24E-01	0.00E+00	0.00E+00	0.00E+00	0.00E+00
	4300000000	-1.54E-01	-3.33E-02	9.13E-01	-4.17E-02	0.00E+00	0.00E+00	0.00E+00	0.00E+00
	4350000000	-1.26E-01	1.44E-01	8.94E-01	1.42E-01	0.00E+00	0.00E+00	0.00E+00	0.00E+00
	4400000000	9.68E-02	2.88E-01	8.15E-01	3.10E-01	0.00E+00	0.00E+00	0.00E+00	0.00E+00
	4450000000	3.86E-01	1.75E-01	6.84E-01	4.83E-01	0.00E+00	0.00E+00	0.00E+00	0.00E+00
	4500000000	4.72E-01	-1.21E-01	5.46E-01	6.41E-01	0.00E+00	0.00E+00	0.00E+00	0.00E+00
	4550000000	3.15E-01	-3.45E-01	3.76E-01	7.47E-01	0.00E+00	0.00E+00	0.00E+00	0.00E+00
	4600000000	1.08E-01	-3.51E-01	1.70E-01	8.36E-01	0.00E+00	0.00E+00	0.00E+00	0.00E+00
	4650000000	3.49E-02	-3.01E-01	-2.60E-02	8.73E-01	0.00E+00	0.00E+00	0.00E+00	0.00E+00
	4700000000	-7.06E-02	-2.41E-01	-2.61E-01	8.79E-01	0.00E+00	0.00E+00	0.00E+00	0.00E+00
	4750000000	-1.15E-01	-1.62E-01	-4.45E-01	8.11E-01	0.00E+00	0.00E+00	0.00E+00	0.00E+00
	4800000000	-1.37E-01	8.89E-03	-7.04E-01	7.22E-01	0.00E+00	0.00E+00	0.00E+00	0.00E+00
	4850000000	5.54E-02	1.43E-01	-9.40E-01	6.96E-01	0.00E+00	0.00E+00	0.00E+00	0.00E+00
	4900000000	2.51E-01	1.13E-02	-1.05E+00	6.55E-01	0.00E+00	0.00E+00	0.00E+00	0.00E+00
	4950000000	1.96E-01	-1.86E-01	-1.06E+00	5.23E-01	0.00E+00	0.00E+00	0.00E+00	0.00E+00
	5000000000	2.02E-02	-1.63E-01	-1.07E+00	3.31E-01	0.00E+00	0.00E+00	0.00E+00	0.00E+00
	5050000000	4.91E-02	8.51E-03	-1.08E+00	4.19E-02	0.00E+00	0.00E+00	0.00E+00	0.00E+00
	5100000000	2.46E-01	-2.15E-02	-1.08E+00	-6.12E-02	0.00E+00	0.00E+00	0.00E+00	0.00E+00
	5150000000	2.65E-01	-2.43E-01	-9.89E-01	-2.30E-01	0.00E+00	0.00E+00	0.00E+00	0.00E+00
	5200000000	6.36E-02	-3.46E-01	-8.65E-01	-4.00E-01	0.00E+00	0.00E+00	0.00E+00	0.00E+00
	5250000000	-8.06E-02	-2.29E-01	-7.30E-01	-5.69E-01	0.00E+00	0.00E+00	0.00E+00	0.00E+00
	5300000000	-3.87E-02	-1.42E-01	-5.85E-01	-7.04E-01	0.00E+00	0.00E+00	0.00E+00	0.00E+00
	5350000000	-5.54E-02	-1.86E-01	-4.33E-01	-7.57E-01	0.00E+00	0.00E+00	0.00E+00	0.00E+00
	5400000000	-1.63E-01	-1.14E-01	-2.15E-01	-8.07E-01	0.00E+00	0.00E+00	0.00E+00	0.00E+00
	5450000000	-1.05E-01	7.19E-02	-3.55E-02	-8.50E-01	0.00E+00	0.00E+00	0.00E+00	0.00E+00
	5500000000	1.21E-01	6.95E-02	9.51E-02	-8.07E-01	0.00E+00	0.00E+00	0.00E+00	0.00E+00
	5550000000	1.86E-01	-1.28E-01	2.56E-01	-6.93E-01	0.00E+00	0.00E+00	0.00E+00	0.00E+00
	5600000000	4.27E-02	-2.05E-01	4.23E-01	-5.47E-01	0.00E+00	0.00E+00	0.00E+00	0.00E+00
	5650000000	3.19E-02	-1.30E-01	5.71E-01	-3.91E-01	0.00E+00	0.00E+00	0.00E+00	0.00E+00
	5700000000	8.99E-02	-1.35E-01	6.75E-01	-2.51E-01	0.00E+00	0.00E+00	0.00E+00	0.00E+00
	5750000000	1.29E-01	-2.25E-01	7.22E-01	-8.47E-02	0.00E+00	0.00E+00	0.00E+00	0.00E+00
	5800000000	5.74E-02	-3.21E-01	7.36E-01	8.19E-02	0.00E+00	0.00E+00	0.00E+00	0.00E+00
	5850000000	-6.54E-02	-3.16E-01	6.99E-01	2.47E-01	0.00E+00	0.00E+00	0.00E+00	0.00E+00
	5900000000	-8.99E-02	-2.20E-01	6.52E-01	4.14E-01	0.00E+00	0.00E+00	0.00E+00	0.00E+00
	5950000000	-2.22E-02	-2.26E-01	5.82E-01	5.26E-01	0.00E+00	0.00E+00	0.00E+00	0.00E+00
	6000000000	-1.33E-01	-2.61E-01	7.52E-01	7.09E-02	0.00E+00	0.00E+00	0.00E+00	0.00E+00
