! NanoVNA-App									
! Date: 2024-03-21 17:10:20									
! Start: 1GHz Stop: 6GHz Points: 101									
! S-Parameter data: F S11 S21 S12 S22									
# Hz S RI R 50									
!	Frequency	S11_Real	S11_Imag	S21_Real	S21_Imag	S12_Real	S12_Imag	S22_Real	S22_Imag
	1000000000	1.20E-01	-2.23E-02	-5.60E-01	-8.75E-01	0.00E+00	0.00E+00	0.00E+00	0.00E+00
	1050000000	5.21E-02	-2.14E-02	-3.78E-01	-9.63E-01	0.00E+00	0.00E+00	0.00E+00	0.00E+00
	1100000000	5.00E-02	-1.11E-02	-1.72E-01	-1.02E+00	0.00E+00	0.00E+00	0.00E+00	0.00E+00
	1150000000	2.93E-02	-4.79E-02	3.21E-02	-1.03E+00	0.00E+00	0.00E+00	0.00E+00	0.00E+00
	1200000000	-5.22E-02	-3.74E-02	2.39E-01	-9.89E-01	0.00E+00	0.00E+00	0.00E+00	0.00E+00
	1250000000	-7.98E-02	6.63E-02	4.45E-01	-9.12E-01	0.00E+00	0.00E+00	0.00E+00	0.00E+00
	1300000000	1.32E-02	1.35E-01	6.27E-01	-8.04E-01	0.00E+00	0.00E+00	0.00E+00	0.00E+00
	1350000000	9.88E-02	6.66E-02	7.68E-01	-6.59E-01	0.00E+00	0.00E+00	0.00E+00	0.00E+00
	1400000000	7.16E-02	5.34E-03	8.99E-01	-4.89E-01	0.00E+00	0.00E+00	0.00E+00	0.00E+00
	1450000000	1.72E-02	2.39E-02	9.72E-01	-3.05E-01	0.00E+00	0.00E+00	0.00E+00	0.00E+00
	1500000000	5.41E-02	6.47E-02	1.00E+00	-1.07E-01	0.00E+00	0.00E+00	0.00E+00	0.00E+00
	1550000000	9.76E-02	4.60E-03	9.92E-01	9.68E-02	0.00E+00	0.00E+00	0.00E+00	0.00E+00
	1600000000	1.42E-02	-6.01E-02	9.45E-01	2.89E-01	0.00E+00	0.00E+00	0.00E+00	0.00E+00
	1650000000	-9.39E-02	3.36E-02	8.63E-01	4.58E-01	0.00E+00	0.00E+00	0.00E+00	0.00E+00
	1700000000	-2.77E-02	1.93E-01	7.35E-01	6.05E-01	0.00E+00	0.00E+00	0.00E+00	0.00E+00
	1750000000	1.56E-01	1.96E-01	5.79E-01	7.37E-01	0.00E+00	0.00E+00	0.00E+00	0.00E+00
	1800000000	2.33E-01	4.35E-02	4.28E-01	8.46E-01	0.00E+00	0.00E+00	0.00E+00	0.00E+00
	1850000000	1.51E-01	-6.71E-02	2.74E-01	9.02E-01	0.00E+00	0.00E+00	0.00E+00	0.00E+00
	1900000000	6.81E-02	-5.01E-02	1.31E-01	9.17E-01	0.00E+00	0.00E+00	0.00E+00	0.00E+00
	1950000000	6.12E-02	-2.06E-02	1.40E-02	8.97E-01	0.00E+00	0.00E+00	0.00E+00	0.00E+00
	2000000000	8.33E-02	-2.89E-02	-4.22E-02	8.13E-01	0.00E+00	0.00E+00	0.00E+00	0.00E+00
	2050000000	5.49E-02	-2.08E-01	-3.74E-02	5.57E-01	0.00E+00	0.00E+00	0.00E+00	0.00E+00
	2100000000	-4.07E-01	-3.87E-02	-2.89E-01	2.08E-01	0.00E+00	0.00E+00	0.00E+00	0.00E+00
	2150000000	-1.97E-01	4.69E-01	-5.06E-01	7.34E-02	0.00E+00	0.00E+00	0.00E+00	0.00E+00
	2200000000	2.59E-01	4.87E-01	-6.10E-01	-4.47E-02	0.00E+00	0.00E+00	0.00E+00	0.00E+00
	2250000000	5.11E-01	1.87E-01	-6.48E-01	-1.55E-01	0.00E+00	0.00E+00	0.00E+00	0.00E+00
	2300000000	4.67E-01	-1.55E-01	-6.24E-01	-2.65E-01	0.00E+00	0.00E+00	0.00E+00	0.00E+00
	2350000000	2.23E-01	-3.45E-01	-5.57E-01	-3.75E-01	0.00E+00	0.00E+00	0.00E+00	0.00E+00
	2400000000	-6.47E-02	-3.24E-01	-4.75E-01	-4.71E-01	0.00E+00	0.00E+00	0.00E+00	0.00E+00
	2450000000	-2.40E-01	-1.02E-01	-3.89E-01	-5.33E-01	0.00E+00	0.00E+00	0.00E+00	0.00E+00
	2500000000	-1.41E-01	1.19E-01	-3.24E-01	-5.03E-01	0.00E+00	0.00E+00	0.00E+00	0.00E+00
	2550000000	-1.83E-01	1.42E-01	-4.76E-02	-3.45E-01	0.00E+00	0.00E+00	0.00E+00	0.00E+00
	2600000000	3.54E-02	3.91E-01	1.95E-01	-4.11E-01	0.00E+00	0.00E+00	0.00E+00	0.00E+00
	2650000000	3.47E-01	2.80E-01	3.36E-01	-3.93E-01	0.00E+00	0.00E+00	0.00E+00	0.00E+00
	2700000000	4.27E-01	-1.21E-02	4.64E-01	-3.19E-01	0.00E+00	0.00E+00	0.00E+00	0.00E+00
	2750000000	2.72E-01	-2.28E-01	5.72E-01	-2.10E-01	0.00E+00	0.00E+00	0.00E+00	0.00E+00
	2800000000	4.31E-02	-2.43E-01	6.58E-01	-9.08E-02	0.00E+00	0.00E+00	0.00E+00	0.00E+00
	2850000000	-8.47E-02	-1.13E-01	7.11E-01	3.21E-02	0.00E+00	0.00E+00	0.00E+00	0.00E+00
	2900000000	-7.15E-02	3.65E-02	6.98E-01	1.54E-01	0.00E+00	0.00E+00	0.00E+00	0.00E+00
	2950000000	5.40E-03	9.72E-02	6.26E-01	3.22E-01	0.00E+00	0.00E+00	0.00E+00	0.00E+00
	3000000000	1.14E-01	1.42E-01	5.87E-01	4.82E-01	0.00E+00	0.00E+00	0.00E+00	0.00E+00
	3050000000	2.31E-01	6.61E-02	4.93E-01	5.98E-01	0.00E+00	0.00E+00	0.00E+00	0.00E+00
	3100000000	2.42E-01	-7.08E-02	3.65E-01	7.11E-01	0.00E+00	0.00E+00	0.00E+00	0.00E+00
	3150000000	1.42E-01	-1.55E-01	2.44E-01	7.97E-01	0.00E+00	0.00E+00	0.00E+00	0.00E+00
	3200000000	3.81E-02	-1.21E-01	1.07E-01	8.26E-01	0.00E+00	0.00E+00	0.00E+00	0.00E+00
	3250000000	1.64E-02	-3.60E-02	-5.34E-02	8.17E-01	0.00E+00	0.00E+00	0.00E+00	0.00E+00
	3300000000	5.44E-02	1.44E-02	-2.10E-01	7.85E-01	0.00E+00	0.00E+00	0.00E+00	0.00E+00
	3350000000	9.26E-02	2.07E-02	-3.56E-01	7.25E-01	0.00E+00	0.00E+00	0.00E+00	0.00E+00
	3400000000	9.77E-02	3.16E-02	-4.71E-01	6.46E-01	0.00E+00	0.00E+00	0.00E+00	0.00E+00
	3450000000	1.87E-01	9.56E-02	-4.95E-01	5.09E-01	0.00E+00	0.00E+00	0.00E+00	0.00E+00
	3500000000	2.80E-01	-6.25E-03	-5.60E-01	2.83E-01	0.00E+00	0.00E+00	0.00E+00	0.00E+00
	3550000000	2.72E-01	-1.52E-01	-6.33E-01	4.07E-02	0.00E+00	0.00E+00	0.00E+00	0.00E+00
	3600000000	1.51E-01	-2.00E-01	-7.04E-01	-1.32E-01	0.00E+00	0.00E+00	0.00E+00	0.00E+00
	3650000000	7.42E-02	-1.74E-01	-6.99E-01	-2.89E-01	0.00E+00	0.00E+00	0.00E+00	0.00E+00
	3700000000	1.87E-02	-1.34E-01	-6.49E-01	-4.60E-01	0.00E+00	0.00E+00	0.00E+00	0.00E+00
	3750000000	-1.57E-02	-5.85E-02	-5.83E-01	-6.09E-01	0.00E+00	0.00E+00	0.00E+00	0.00E+00
	3800000000	1.66E-02	2.53E-02	-4.77E-01	-7.09E-01	0.00E+00	0.00E+00	0.00E+00	0.00E+00
	3850000000	8.26E-02	4.35E-02	-3.15E-01	-7.86E-01	0.00E+00	0.00E+00	0.00E+00	0.00E+00
	3900000000	1.01E-01	4.07E-02	-1.38E-01	-8.46E-01	0.00E+00	0.00E+00	0.00E+00	0.00E+00
	3950000000	1.43E-01	8.69E-02	2.67E-02	-8.47E-01	0.00E+00	0.00E+00	0.00E+00	0.00E+00
	4000000000	2.78E-01	7.75E-02	2.31E-01	-8.01E-01	0.00E+00	0.00E+00	0.00E+00	0.00E+00
	4050000000	3.78E-01	-8.57E-02	4.34E-01	-7.54E-01	0.00E+00	0.00E+00	0.00E+00	0.00E+00
	4100000000	3.01E-01	-2.97E-01	5.79E-01	-6.81E-01	0.00E+00	0.00E+00	0.00E+00	0.00E+00
	4150000000	8.23E-02	-3.74E-01	7.10E-01	-5.36E-01	0.00E+00	0.00E+00	0.00E+00	0.00E+00
	4200000000	-9.31E-02	-2.70E-01	8.42E-01	-3.85E-01	0.00E+00	0.00E+00	0.00E+00	0.00E+00
	4250000000	-1.34E-01	-1.33E-01	9.04E-01	-2.44E-01	0.00E+00	0.00E+00	0.00E+00	0.00E+00
	4300000000	-1.49E-01	-3.14E-02	9.06E-01	-6.21E-02	0.00E+00	0.00E+00	0.00E+00	0.00E+00
	4350000000	-1.21E-01	1.37E-01	8.92E-01	1.21E-01	0.00E+00	0.00E+00	0.00E+00	0.00E+00
	4400000000	9.54E-02	2.77E-01	8.16E-01	2.87E-01	0.00E+00	0.00E+00	0.00E+00	0.00E+00
	4450000000	3.80E-01	1.68E-01	6.92E-01	4.59E-01	0.00E+00	0.00E+00	0.00E+00	0.00E+00
	4500000000	4.66E-01	-1.23E-01	5.54E-01	6.26E-01	0.00E+00	0.00E+00	0.00E+00	0.00E+00
	4550000000	3.09E-01	-3.47E-01	3.93E-01	7.33E-01	0.00E+00	0.00E+00	0.00E+00	0.00E+00
	4600000000	1.04E-01	-3.50E-01	1.90E-01	8.27E-01	0.00E+00	0.00E+00	0.00E+00	0.00E+00
	4650000000	3.77E-02	-3.01E-01	-1.86E-03	8.67E-01	0.00E+00	0.00E+00	0.00E+00	0.00E+00
	4700000000	-6.32E-02	-2.42E-01	-2.30E-01	8.82E-01	0.00E+00	0.00E+00	0.00E+00	0.00E+00
	4750000000	-1.06E-01	-1.69E-01	-4.14E-01	8.19E-01	0.00E+00	0.00E+00	0.00E+00	0.00E+00
	4800000000	-1.28E-01	-1.15E-03	-6.71E-01	7.40E-01	0.00E+00	0.00E+00	0.00E+00	0.00E+00
	4850000000	5.90E-02	1.29E-01	-9.08E-01	7.20E-01	0.00E+00	0.00E+00	0.00E+00	0.00E+00
	4900000000	2.50E-01	-7.23E-04	-1.01E+00	6.87E-01	0.00E+00	0.00E+00	0.00E+00	0.00E+00
	4950000000	1.91E-01	-1.93E-01	-1.03E+00	5.55E-01	0.00E+00	0.00E+00	0.00E+00	0.00E+00
	5000000000	1.63E-02	-1.61E-01	-1.05E+00	3.66E-01	0.00E+00	0.00E+00	0.00E+00	0.00E+00
	5050000000	5.35E-02	1.45E-02	-1.08E+00	8.78E-02	0.00E+00	0.00E+00	0.00E+00	0.00E+00
	5100000000	2.58E-01	-1.97E-02	-1.07E+00	-1.46E-02	0.00E+00	0.00E+00	0.00E+00	0.00E+00
	5150000000	2.77E-01	-2.44E-01	-9.85E-01	-1.81E-01	0.00E+00	0.00E+00	0.00E+00	0.00E+00
	5200000000	7.37E-02	-3.49E-01	-8.74E-01	-3.51E-01	0.00E+00	0.00E+00	0.00E+00	0.00E+00
	5250000000	-7.20E-02	-2.37E-01	-7.47E-01	-5.26E-01	0.00E+00	0.00E+00	0.00E+00	0.00E+00
	5300000000	-3.57E-02	-1.49E-01	-6.11E-01	-6.64E-01	0.00E+00	0.00E+00	0.00E+00	0.00E+00
	5350000000	-5.55E-02	-1.90E-01	-4.62E-01	-7.28E-01	0.00E+00	0.00E+00	0.00E+00	0.00E+00
	5400000000	-1.60E-01	-1.10E-01	-2.54E-01	-7.87E-01	0.00E+00	0.00E+00	0.00E+00	0.00E+00
	5450000000	-9.58E-02	7.63E-02	-8.18E-02	-8.37E-01	0.00E+00	0.00E+00	0.00E+00	0.00E+00
	5500000000	1.30E-01	6.40E-02	5.47E-02	-8.01E-01	0.00E+00	0.00E+00	0.00E+00	0.00E+00
	5550000000	1.86E-01	-1.34E-01	2.21E-01	-6.93E-01	0.00E+00	0.00E+00	0.00E+00	0.00E+00
	5600000000	4.73E-02	-2.03E-01	3.85E-01	-5.61E-01	0.00E+00	0.00E+00	0.00E+00	0.00E+00
	5650000000	4.29E-02	-1.40E-01	5.39E-01	-4.17E-01	0.00E+00	0.00E+00	0.00E+00	0.00E+00
	5700000000	8.78E-02	-1.48E-01	6.50E-01	-2.84E-01	0.00E+00	0.00E+00	0.00E+00	0.00E+00
	5750000000	1.25E-01	-2.32E-01	7.04E-01	-1.22E-01	0.00E+00	0.00E+00	0.00E+00	0.00E+00
	5800000000	5.60E-02	-3.24E-01	7.27E-01	4.03E-02	0.00E+00	0.00E+00	0.00E+00	0.00E+00
	5850000000	-5.76E-02	-3.17E-01	7.00E-01	2.06E-01	0.00E+00	0.00E+00	0.00E+00	0.00E+00
	5900000000	-7.57E-02	-2.23E-01	6.59E-01	3.72E-01	0.00E+00	0.00E+00	0.00E+00	0.00E+00
	5950000000	-2.43E-03	-2.39E-01	5.96E-01	4.84E-01	0.00E+00	0.00E+00	0.00E+00	0.00E+00
	6000000000	-1.17E-01	-2.82E-01	7.39E-01	2.83E-02	0.00E+00	0.00E+00	0.00E+00	0.00E+00
