! NanoVNA-App									
! Date: 2024-03-21 13:59:27									
! Start: 1GHz Stop: 6GHz Points: 101									
! S-Parameter data: F S11 S21 S12 S22									
# Hz S RI R 50									
!	Frequency	S11_Real	S11_Imag	S21_Real	S21_Imag	S12_Real	S12_Imag	S22_Real	S22_Imag
	1000000000	1.21E-01	-2.32E-02	-5.56E-01	-8.76E-01	0.00E+00	0.00E+00	0.00E+00	0.00E+00
	1050000000	5.23E-02	-2.22E-02	-3.76E-01	-9.64E-01	0.00E+00	0.00E+00	0.00E+00	0.00E+00
	1100000000	5.00E-02	-1.07E-02	-1.69E-01	-1.02E+00	0.00E+00	0.00E+00	0.00E+00	0.00E+00
	1150000000	3.04E-02	-4.67E-02	3.68E-02	-1.03E+00	0.00E+00	0.00E+00	0.00E+00	0.00E+00
	1200000000	-5.04E-02	-3.66E-02	2.42E-01	-9.89E-01	0.00E+00	0.00E+00	0.00E+00	0.00E+00
	1250000000	-7.82E-02	6.68E-02	4.48E-01	-9.10E-01	0.00E+00	0.00E+00	0.00E+00	0.00E+00
	1300000000	1.54E-02	1.35E-01	6.28E-01	-8.03E-01	0.00E+00	0.00E+00	0.00E+00	0.00E+00
	1350000000	1.01E-01	6.54E-02	7.70E-01	-6.55E-01	0.00E+00	0.00E+00	0.00E+00	0.00E+00
	1400000000	7.32E-02	4.47E-03	8.99E-01	-4.85E-01	0.00E+00	0.00E+00	0.00E+00	0.00E+00
	1450000000	1.77E-02	2.23E-02	9.73E-01	-3.02E-01	0.00E+00	0.00E+00	0.00E+00	0.00E+00
	1500000000	5.27E-02	6.42E-02	1.00E+00	-1.04E-01	0.00E+00	0.00E+00	0.00E+00	0.00E+00
	1550000000	9.58E-02	5.74E-03	9.91E-01	9.84E-02	0.00E+00	0.00E+00	0.00E+00	0.00E+00
	1600000000	1.29E-02	-5.70E-02	9.43E-01	2.90E-01	0.00E+00	0.00E+00	0.00E+00	0.00E+00
	1650000000	-9.30E-02	3.80E-02	8.58E-01	4.60E-01	0.00E+00	0.00E+00	0.00E+00	0.00E+00
	1700000000	-2.38E-02	1.97E-01	7.31E-01	6.03E-01	0.00E+00	0.00E+00	0.00E+00	0.00E+00
	1750000000	1.61E-01	1.96E-01	5.75E-01	7.36E-01	0.00E+00	0.00E+00	0.00E+00	0.00E+00
	1800000000	2.37E-01	4.07E-02	4.24E-01	8.44E-01	0.00E+00	0.00E+00	0.00E+00	0.00E+00
	1850000000	1.52E-01	-7.29E-02	2.70E-01	8.99E-01	0.00E+00	0.00E+00	0.00E+00	0.00E+00
	1900000000	6.32E-02	-5.49E-02	1.25E-01	9.14E-01	0.00E+00	0.00E+00	0.00E+00	0.00E+00
	1950000000	5.33E-02	-1.99E-02	9.35E-03	8.91E-01	0.00E+00	0.00E+00	0.00E+00	0.00E+00
	2000000000	7.67E-02	-2.14E-02	-4.75E-02	8.09E-01	0.00E+00	0.00E+00	0.00E+00	0.00E+00
	2050000000	5.85E-02	-1.95E-01	-3.66E-02	5.64E-01	0.00E+00	0.00E+00	0.00E+00	0.00E+00
	2100000000	-3.94E-01	-4.05E-02	-2.83E-01	2.02E-01	0.00E+00	0.00E+00	0.00E+00	0.00E+00
	2150000000	-1.94E-01	4.67E-01	-4.99E-01	6.70E-02	0.00E+00	0.00E+00	0.00E+00	0.00E+00
	2200000000	2.62E-01	4.84E-01	-6.01E-01	-5.06E-02	0.00E+00	0.00E+00	0.00E+00	0.00E+00
	2250000000	5.12E-01	1.81E-01	-6.38E-01	-1.61E-01	0.00E+00	0.00E+00	0.00E+00	0.00E+00
	2300000000	4.63E-01	-1.62E-01	-6.13E-01	-2.67E-01	0.00E+00	0.00E+00	0.00E+00	0.00E+00
	2350000000	2.16E-01	-3.48E-01	-5.44E-01	-3.80E-01	0.00E+00	0.00E+00	0.00E+00	0.00E+00
	2400000000	-7.48E-02	-3.17E-01	-4.58E-01	-4.71E-01	0.00E+00	0.00E+00	0.00E+00	0.00E+00
	2450000000	-2.41E-01	-8.86E-02	-3.71E-01	-5.32E-01	0.00E+00	0.00E+00	0.00E+00	0.00E+00
	2500000000	-1.33E-01	1.30E-01	-3.04E-01	-5.03E-01	0.00E+00	0.00E+00	0.00E+00	0.00E+00
	2550000000	-1.62E-01	1.37E-01	-4.13E-02	-3.41E-01	0.00E+00	0.00E+00	0.00E+00	0.00E+00
	2600000000	4.15E-02	3.78E-01	2.09E-01	-4.01E-01	0.00E+00	0.00E+00	0.00E+00	0.00E+00
	2650000000	3.40E-01	2.67E-01	3.53E-01	-3.80E-01	0.00E+00	0.00E+00	0.00E+00	0.00E+00
	2700000000	4.12E-01	-1.39E-02	4.77E-01	-3.02E-01	0.00E+00	0.00E+00	0.00E+00	0.00E+00
	2750000000	2.59E-01	-2.22E-01	5.86E-01	-1.95E-01	0.00E+00	0.00E+00	0.00E+00	0.00E+00
	2800000000	4.34E-02	-2.29E-01	6.70E-01	-7.00E-02	0.00E+00	0.00E+00	0.00E+00	0.00E+00
	2850000000	-7.51E-02	-1.01E-01	7.21E-01	4.77E-02	0.00E+00	0.00E+00	0.00E+00	0.00E+00
	2900000000	-5.57E-02	3.58E-02	7.04E-01	1.72E-01	0.00E+00	0.00E+00	0.00E+00	0.00E+00
	2950000000	1.20E-02	8.60E-02	6.29E-01	3.40E-01	0.00E+00	0.00E+00	0.00E+00	0.00E+00
	3000000000	1.10E-01	1.32E-01	5.87E-01	5.02E-01	0.00E+00	0.00E+00	0.00E+00	0.00E+00
	3050000000	2.23E-01	6.37E-02	4.91E-01	6.16E-01	0.00E+00	0.00E+00	0.00E+00	0.00E+00
	3100000000	2.34E-01	-6.83E-02	3.60E-01	7.24E-01	0.00E+00	0.00E+00	0.00E+00	0.00E+00
	3150000000	1.39E-01	-1.48E-01	2.32E-01	8.10E-01	0.00E+00	0.00E+00	0.00E+00	0.00E+00
	3200000000	3.95E-02	-1.14E-01	9.65E-02	8.36E-01	0.00E+00	0.00E+00	0.00E+00	0.00E+00
	3250000000	2.13E-02	-3.31E-02	-6.66E-02	8.26E-01	0.00E+00	0.00E+00	0.00E+00	0.00E+00
	3300000000	5.87E-02	1.27E-02	-2.24E-01	7.92E-01	0.00E+00	0.00E+00	0.00E+00	0.00E+00
	3350000000	9.32E-02	1.78E-02	-3.72E-01	7.28E-01	0.00E+00	0.00E+00	0.00E+00	0.00E+00
	3400000000	9.66E-02	2.85E-02	-4.81E-01	6.50E-01	0.00E+00	0.00E+00	0.00E+00	0.00E+00
	3450000000	1.84E-01	9.60E-02	-5.07E-01	5.06E-01	0.00E+00	0.00E+00	0.00E+00	0.00E+00
	3500000000	2.79E-01	-6.81E-03	-5.71E-01	2.74E-01	0.00E+00	0.00E+00	0.00E+00	0.00E+00
	3550000000	2.67E-01	-1.56E-01	-6.45E-01	2.79E-02	0.00E+00	0.00E+00	0.00E+00	0.00E+00
	3600000000	1.44E-01	-1.97E-01	-7.19E-01	-1.42E-01	0.00E+00	0.00E+00	0.00E+00	0.00E+00
	3650000000	7.45E-02	-1.67E-01	-7.10E-01	-3.02E-01	0.00E+00	0.00E+00	0.00E+00	0.00E+00
	3700000000	2.45E-02	-1.31E-01	-6.57E-01	-4.73E-01	0.00E+00	0.00E+00	0.00E+00	0.00E+00
	3750000000	-1.11E-02	-6.23E-02	-5.87E-01	-6.22E-01	0.00E+00	0.00E+00	0.00E+00	0.00E+00
	3800000000	1.93E-02	1.95E-02	-4.80E-01	-7.21E-01	0.00E+00	0.00E+00	0.00E+00	0.00E+00
	3850000000	8.00E-02	3.78E-02	-3.14E-01	-7.99E-01	0.00E+00	0.00E+00	0.00E+00	0.00E+00
	3900000000	9.62E-02	3.88E-02	-1.41E-01	-8.58E-01	0.00E+00	0.00E+00	0.00E+00	0.00E+00
	3950000000	1.37E-01	8.99E-02	3.02E-02	-8.57E-01	0.00E+00	0.00E+00	0.00E+00	0.00E+00
	4000000000	2.77E-01	8.30E-02	2.32E-01	-8.07E-01	0.00E+00	0.00E+00	0.00E+00	0.00E+00
	4050000000	3.82E-01	-8.25E-02	4.38E-01	-7.58E-01	0.00E+00	0.00E+00	0.00E+00	0.00E+00
	4100000000	3.06E-01	-2.97E-01	5.83E-01	-6.83E-01	0.00E+00	0.00E+00	0.00E+00	0.00E+00
	4150000000	8.61E-02	-3.77E-01	7.13E-01	-5.37E-01	0.00E+00	0.00E+00	0.00E+00	0.00E+00
	4200000000	-9.30E-02	-2.72E-01	8.43E-01	-3.85E-01	0.00E+00	0.00E+00	0.00E+00	0.00E+00
	4250000000	-1.35E-01	-1.34E-01	9.06E-01	-2.41E-01	0.00E+00	0.00E+00	0.00E+00	0.00E+00
	4300000000	-1.51E-01	-3.22E-02	9.09E-01	-5.16E-02	0.00E+00	0.00E+00	0.00E+00	0.00E+00
	4350000000	-1.22E-01	1.40E-01	8.93E-01	1.29E-01	0.00E+00	0.00E+00	0.00E+00	0.00E+00
	4400000000	9.64E-02	2.81E-01	8.17E-01	2.92E-01	0.00E+00	0.00E+00	0.00E+00	0.00E+00
	4450000000	3.81E-01	1.70E-01	6.88E-01	4.69E-01	0.00E+00	0.00E+00	0.00E+00	0.00E+00
	4500000000	4.68E-01	-1.22E-01	5.52E-01	6.32E-01	0.00E+00	0.00E+00	0.00E+00	0.00E+00
	4550000000	3.11E-01	-3.46E-01	3.87E-01	7.37E-01	0.00E+00	0.00E+00	0.00E+00	0.00E+00
	4600000000	1.07E-01	-3.51E-01	1.85E-01	8.28E-01	0.00E+00	0.00E+00	0.00E+00	0.00E+00
	4650000000	3.69E-02	-3.03E-01	-1.08E-02	8.69E-01	0.00E+00	0.00E+00	0.00E+00	0.00E+00
	4700000000	-6.70E-02	-2.42E-01	-2.40E-01	8.81E-01	0.00E+00	0.00E+00	0.00E+00	0.00E+00
	4750000000	-1.10E-01	-1.65E-01	-4.24E-01	8.16E-01	0.00E+00	0.00E+00	0.00E+00	0.00E+00
	4800000000	-1.31E-01	2.49E-03	-6.83E-01	7.34E-01	0.00E+00	0.00E+00	0.00E+00	0.00E+00
	4850000000	5.80E-02	1.34E-01	-9.22E-01	7.08E-01	0.00E+00	0.00E+00	0.00E+00	0.00E+00
	4900000000	2.52E-01	4.11E-03	-1.03E+00	6.75E-01	0.00E+00	0.00E+00	0.00E+00	0.00E+00
	4950000000	1.95E-01	-1.91E-01	-1.04E+00	5.42E-01	0.00E+00	0.00E+00	0.00E+00	0.00E+00
	5000000000	1.68E-02	-1.63E-01	-1.06E+00	3.59E-01	0.00E+00	0.00E+00	0.00E+00	0.00E+00
	5050000000	5.08E-02	1.10E-02	-1.08E+00	7.09E-02	0.00E+00	0.00E+00	0.00E+00	0.00E+00
	5100000000	2.52E-01	-1.98E-02	-1.08E+00	-2.93E-02	0.00E+00	0.00E+00	0.00E+00	0.00E+00
	5150000000	2.71E-01	-2.42E-01	-9.90E-01	-1.95E-01	0.00E+00	0.00E+00	0.00E+00	0.00E+00
	5200000000	7.23E-02	-3.46E-01	-8.72E-01	-3.70E-01	0.00E+00	0.00E+00	0.00E+00	0.00E+00
	5250000000	-7.38E-02	-2.32E-01	-7.44E-01	-5.39E-01	0.00E+00	0.00E+00	0.00E+00	0.00E+00
	5300000000	-3.67E-02	-1.46E-01	-6.08E-01	-6.76E-01	0.00E+00	0.00E+00	0.00E+00	0.00E+00
	5350000000	-5.53E-02	-1.89E-01	-4.54E-01	-7.38E-01	0.00E+00	0.00E+00	0.00E+00	0.00E+00
	5400000000	-1.63E-01	-1.09E-01	-2.46E-01	-7.93E-01	0.00E+00	0.00E+00	0.00E+00	0.00E+00
	5450000000	-9.98E-02	7.49E-02	-6.68E-02	-8.42E-01	0.00E+00	0.00E+00	0.00E+00	0.00E+00
	5500000000	1.26E-01	6.63E-02	6.77E-02	-8.05E-01	0.00E+00	0.00E+00	0.00E+00	0.00E+00
	5550000000	1.85E-01	-1.30E-01	2.37E-01	-6.92E-01	0.00E+00	0.00E+00	0.00E+00	0.00E+00
	5600000000	4.54E-02	-2.02E-01	3.96E-01	-5.59E-01	0.00E+00	0.00E+00	0.00E+00	0.00E+00
	5650000000	4.03E-02	-1.35E-01	5.50E-01	-4.08E-01	0.00E+00	0.00E+00	0.00E+00	0.00E+00
	5700000000	8.98E-02	-1.45E-01	6.57E-01	-2.77E-01	0.00E+00	0.00E+00	0.00E+00	0.00E+00
	5750000000	1.23E-01	-2.31E-01	7.08E-01	-1.15E-01	0.00E+00	0.00E+00	0.00E+00	0.00E+00
	5800000000	5.55E-02	-3.23E-01	7.30E-01	5.51E-02	0.00E+00	0.00E+00	0.00E+00	0.00E+00
	5850000000	-6.39E-02	-3.17E-01	7.01E-01	2.17E-01	0.00E+00	0.00E+00	0.00E+00	0.00E+00
	5900000000	-8.04E-02	-2.21E-01	6.58E-01	3.83E-01	0.00E+00	0.00E+00	0.00E+00	0.00E+00
	5950000000	-9.10E-03	-2.34E-01	5.93E-01	4.93E-01	0.00E+00	0.00E+00	0.00E+00	0.00E+00
	6000000000	-1.20E-01	-2.77E-01	7.41E-01	4.43E-02	0.00E+00	0.00E+00	0.00E+00	0.00E+00
