! NanoVNA-App									
! Date: 2024-03-21 15:03:41									
! Start: 1GHz Stop: 6GHz Points: 101									
! S-Parameter data: F S11 S21 S12 S22									
# Hz S RI R 50									
!	Frequency	S11_Real	S11_Imag	S21_Real	S21_Imag	S12_Real	S12_Imag	S22_Real	S22_Imag
	1000000000	1.21E-01	-2.26E-02	-5.57E-01	-8.76E-01	0.00E+00	0.00E+00	0.00E+00	0.00E+00
	1050000000	5.22E-02	-2.15E-02	-3.77E-01	-9.63E-01	0.00E+00	0.00E+00	0.00E+00	0.00E+00
	1100000000	5.00E-02	-1.08E-02	-1.71E-01	-1.02E+00	0.00E+00	0.00E+00	0.00E+00	0.00E+00
	1150000000	3.01E-02	-4.71E-02	3.57E-02	-1.03E+00	0.00E+00	0.00E+00	0.00E+00	0.00E+00
	1200000000	-5.10E-02	-3.71E-02	2.41E-01	-9.90E-01	0.00E+00	0.00E+00	0.00E+00	0.00E+00
	1250000000	-7.89E-02	6.64E-02	4.47E-01	-9.11E-01	0.00E+00	0.00E+00	0.00E+00	0.00E+00
	1300000000	1.44E-02	1.35E-01	6.28E-01	-8.04E-01	0.00E+00	0.00E+00	0.00E+00	0.00E+00
	1350000000	1.00E-01	6.55E-02	7.70E-01	-6.57E-01	0.00E+00	0.00E+00	0.00E+00	0.00E+00
	1400000000	7.21E-02	5.17E-03	8.99E-01	-4.87E-01	0.00E+00	0.00E+00	0.00E+00	0.00E+00
	1450000000	1.74E-02	2.36E-02	9.73E-01	-3.04E-01	0.00E+00	0.00E+00	0.00E+00	0.00E+00
	1500000000	5.38E-02	6.50E-02	1.00E+00	-1.06E-01	0.00E+00	0.00E+00	0.00E+00	0.00E+00
	1550000000	9.76E-02	5.45E-03	9.92E-01	9.84E-02	0.00E+00	0.00E+00	0.00E+00	0.00E+00
	1600000000	1.40E-02	-5.91E-02	9.46E-01	2.89E-01	0.00E+00	0.00E+00	0.00E+00	0.00E+00
	1650000000	-9.39E-02	3.54E-02	8.63E-01	4.61E-01	0.00E+00	0.00E+00	0.00E+00	0.00E+00
	1700000000	-2.62E-02	1.95E-01	7.34E-01	6.04E-01	0.00E+00	0.00E+00	0.00E+00	0.00E+00
	1750000000	1.59E-01	1.97E-01	5.77E-01	7.38E-01	0.00E+00	0.00E+00	0.00E+00	0.00E+00
	1800000000	2.36E-01	4.29E-02	4.27E-01	8.45E-01	0.00E+00	0.00E+00	0.00E+00	0.00E+00
	1850000000	1.52E-01	-7.01E-02	2.73E-01	9.01E-01	0.00E+00	0.00E+00	0.00E+00	0.00E+00
	1900000000	6.62E-02	-5.34E-02	1.29E-01	9.17E-01	0.00E+00	0.00E+00	0.00E+00	0.00E+00
	1950000000	5.64E-02	-2.14E-02	9.86E-03	8.95E-01	0.00E+00	0.00E+00	0.00E+00	0.00E+00
	2000000000	7.76E-02	-2.43E-02	-4.68E-02	8.13E-01	0.00E+00	0.00E+00	0.00E+00	0.00E+00
	2050000000	5.95E-02	-1.97E-01	-3.55E-02	5.68E-01	0.00E+00	0.00E+00	0.00E+00	0.00E+00
	2100000000	-3.98E-01	-4.42E-02	-2.83E-01	2.04E-01	0.00E+00	0.00E+00	0.00E+00	0.00E+00
	2150000000	-1.98E-01	4.67E-01	-5.02E-01	6.80E-02	0.00E+00	0.00E+00	0.00E+00	0.00E+00
	2200000000	2.59E-01	4.86E-01	-6.04E-01	-4.79E-02	0.00E+00	0.00E+00	0.00E+00	0.00E+00
	2250000000	5.11E-01	1.86E-01	-6.44E-01	-1.60E-01	0.00E+00	0.00E+00	0.00E+00	0.00E+00
	2300000000	4.66E-01	-1.58E-01	-6.20E-01	-2.67E-01	0.00E+00	0.00E+00	0.00E+00	0.00E+00
	2350000000	2.19E-01	-3.49E-01	-5.53E-01	-3.75E-01	0.00E+00	0.00E+00	0.00E+00	0.00E+00
	2400000000	-6.88E-02	-3.23E-01	-4.70E-01	-4.71E-01	0.00E+00	0.00E+00	0.00E+00	0.00E+00
	2450000000	-2.41E-01	-9.71E-02	-3.81E-01	-5.32E-01	0.00E+00	0.00E+00	0.00E+00	0.00E+00
	2500000000	-1.40E-01	1.24E-01	-3.13E-01	-5.05E-01	0.00E+00	0.00E+00	0.00E+00	0.00E+00
	2550000000	-1.72E-01	1.40E-01	-5.18E-02	-3.45E-01	0.00E+00	0.00E+00	0.00E+00	0.00E+00
	2600000000	3.77E-02	3.85E-01	1.97E-01	-4.04E-01	0.00E+00	0.00E+00	0.00E+00	0.00E+00
	2650000000	3.44E-01	2.75E-01	3.41E-01	-3.85E-01	0.00E+00	0.00E+00	0.00E+00	0.00E+00
	2700000000	4.20E-01	-1.42E-02	4.65E-01	-3.10E-01	0.00E+00	0.00E+00	0.00E+00	0.00E+00
	2750000000	2.67E-01	-2.27E-01	5.76E-01	-2.00E-01	0.00E+00	0.00E+00	0.00E+00	0.00E+00
	2800000000	4.43E-02	-2.39E-01	6.62E-01	-7.60E-02	0.00E+00	0.00E+00	0.00E+00	0.00E+00
	2850000000	-8.30E-02	-1.08E-01	7.14E-01	4.16E-02	0.00E+00	0.00E+00	0.00E+00	0.00E+00
	2900000000	-6.56E-02	3.83E-02	6.99E-01	1.65E-01	0.00E+00	0.00E+00	0.00E+00	0.00E+00
	2950000000	1.07E-02	9.35E-02	6.26E-01	3.36E-01	0.00E+00	0.00E+00	0.00E+00	0.00E+00
	3000000000	1.13E-01	1.37E-01	5.83E-01	4.90E-01	0.00E+00	0.00E+00	0.00E+00	0.00E+00
	3050000000	2.28E-01	6.44E-02	4.89E-01	6.08E-01	0.00E+00	0.00E+00	0.00E+00	0.00E+00
	3100000000	2.39E-01	-7.16E-02	3.60E-01	7.18E-01	0.00E+00	0.00E+00	0.00E+00	0.00E+00
	3150000000	1.40E-01	-1.53E-01	2.36E-01	8.04E-01	0.00E+00	0.00E+00	0.00E+00	0.00E+00
	3200000000	3.76E-02	-1.18E-01	9.87E-02	8.31E-01	0.00E+00	0.00E+00	0.00E+00	0.00E+00
	3250000000	1.75E-02	-3.39E-02	-5.97E-02	8.21E-01	0.00E+00	0.00E+00	0.00E+00	0.00E+00
	3300000000	5.66E-02	1.44E-02	-2.19E-01	7.89E-01	0.00E+00	0.00E+00	0.00E+00	0.00E+00
	3350000000	9.37E-02	1.91E-02	-3.65E-01	7.27E-01	0.00E+00	0.00E+00	0.00E+00	0.00E+00
	3400000000	9.74E-02	3.02E-02	-4.78E-01	6.47E-01	0.00E+00	0.00E+00	0.00E+00	0.00E+00
	3450000000	1.86E-01	9.60E-02	-5.03E-01	5.07E-01	0.00E+00	0.00E+00	0.00E+00	0.00E+00
	3500000000	2.81E-01	-7.97E-03	-5.64E-01	2.78E-01	0.00E+00	0.00E+00	0.00E+00	0.00E+00
	3550000000	2.70E-01	-1.56E-01	-6.39E-01	2.98E-02	0.00E+00	0.00E+00	0.00E+00	0.00E+00
	3600000000	1.45E-01	-1.99E-01	-7.13E-01	-1.40E-01	0.00E+00	0.00E+00	0.00E+00	0.00E+00
	3650000000	7.39E-02	-1.68E-01	-7.07E-01	-2.99E-01	0.00E+00	0.00E+00	0.00E+00	0.00E+00
	3700000000	2.40E-02	-1.31E-01	-6.54E-01	-4.70E-01	0.00E+00	0.00E+00	0.00E+00	0.00E+00
	3750000000	-1.06E-02	-6.10E-02	-5.86E-01	-6.20E-01	0.00E+00	0.00E+00	0.00E+00	0.00E+00
	3800000000	1.82E-02	2.02E-02	-4.78E-01	-7.21E-01	0.00E+00	0.00E+00	0.00E+00	0.00E+00
	3850000000	7.95E-02	3.80E-02	-3.16E-01	-7.94E-01	0.00E+00	0.00E+00	0.00E+00	0.00E+00
	3900000000	9.55E-02	3.94E-02	-1.40E-01	-8.55E-01	0.00E+00	0.00E+00	0.00E+00	0.00E+00
	3950000000	1.39E-01	9.16E-02	2.42E-02	-8.54E-01	0.00E+00	0.00E+00	0.00E+00	0.00E+00
	4000000000	2.79E-01	8.28E-02	2.29E-01	-8.05E-01	0.00E+00	0.00E+00	0.00E+00	0.00E+00
	4050000000	3.82E-01	-8.46E-02	4.34E-01	-7.57E-01	0.00E+00	0.00E+00	0.00E+00	0.00E+00
	4100000000	3.05E-01	-2.98E-01	5.81E-01	-6.81E-01	0.00E+00	0.00E+00	0.00E+00	0.00E+00
	4150000000	8.46E-02	-3.78E-01	7.09E-01	-5.37E-01	0.00E+00	0.00E+00	0.00E+00	0.00E+00
	4200000000	-9.48E-02	-2.72E-01	8.40E-01	-3.85E-01	0.00E+00	0.00E+00	0.00E+00	0.00E+00
	4250000000	-1.37E-01	-1.33E-01	9.05E-01	-2.43E-01	0.00E+00	0.00E+00	0.00E+00	0.00E+00
	4300000000	-1.51E-01	-2.93E-02	9.07E-01	-5.55E-02	0.00E+00	0.00E+00	0.00E+00	0.00E+00
	4350000000	-1.21E-01	1.42E-01	8.92E-01	1.25E-01	0.00E+00	0.00E+00	0.00E+00	0.00E+00
	4400000000	9.70E-02	2.80E-01	8.16E-01	2.90E-01	0.00E+00	0.00E+00	0.00E+00	0.00E+00
	4450000000	3.81E-01	1.69E-01	6.88E-01	4.65E-01	0.00E+00	0.00E+00	0.00E+00	0.00E+00
	4500000000	4.68E-01	-1.24E-01	5.55E-01	6.30E-01	0.00E+00	0.00E+00	0.00E+00	0.00E+00
	4550000000	3.10E-01	-3.48E-01	3.89E-01	7.36E-01	0.00E+00	0.00E+00	0.00E+00	0.00E+00
	4600000000	1.02E-01	-3.52E-01	1.87E-01	8.29E-01	0.00E+00	0.00E+00	0.00E+00	0.00E+00
	4650000000	3.53E-02	-3.00E-01	-3.44E-03	8.69E-01	0.00E+00	0.00E+00	0.00E+00	0.00E+00
	4700000000	-6.55E-02	-2.42E-01	-2.39E-01	8.80E-01	0.00E+00	0.00E+00	0.00E+00	0.00E+00
	4750000000	-1.08E-01	-1.67E-01	-4.22E-01	8.17E-01	0.00E+00	0.00E+00	0.00E+00	0.00E+00
	4800000000	-1.29E-01	4.04E-04	-6.82E-01	7.37E-01	0.00E+00	0.00E+00	0.00E+00	0.00E+00
	4850000000	5.96E-02	1.32E-01	-9.16E-01	7.16E-01	0.00E+00	0.00E+00	0.00E+00	0.00E+00
	4900000000	2.52E-01	1.15E-03	-1.02E+00	6.78E-01	0.00E+00	0.00E+00	0.00E+00	0.00E+00
	4950000000	1.93E-01	-1.93E-01	-1.04E+00	5.50E-01	0.00E+00	0.00E+00	0.00E+00	0.00E+00
	5000000000	1.54E-02	-1.63E-01	-1.06E+00	3.65E-01	0.00E+00	0.00E+00	0.00E+00	0.00E+00
	5050000000	5.08E-02	1.34E-02	-1.08E+00	7.83E-02	0.00E+00	0.00E+00	0.00E+00	0.00E+00
	5100000000	2.53E-01	-1.83E-02	-1.08E+00	-1.89E-02	0.00E+00	0.00E+00	0.00E+00	0.00E+00
	5150000000	2.75E-01	-2.42E-01	-9.88E-01	-1.91E-01	0.00E+00	0.00E+00	0.00E+00	0.00E+00
	5200000000	7.26E-02	-3.47E-01	-8.75E-01	-3.57E-01	0.00E+00	0.00E+00	0.00E+00	0.00E+00
	5250000000	-7.24E-02	-2.35E-01	-7.46E-01	-5.35E-01	0.00E+00	0.00E+00	0.00E+00	0.00E+00
	5300000000	-3.61E-02	-1.48E-01	-6.06E-01	-6.73E-01	0.00E+00	0.00E+00	0.00E+00	0.00E+00
	5350000000	-5.83E-02	-1.88E-01	-4.61E-01	-7.34E-01	0.00E+00	0.00E+00	0.00E+00	0.00E+00
	5400000000	-1.61E-01	-1.12E-01	-2.46E-01	-7.92E-01	0.00E+00	0.00E+00	0.00E+00	0.00E+00
	5450000000	-9.84E-02	7.44E-02	-7.17E-02	-8.41E-01	0.00E+00	0.00E+00	0.00E+00	0.00E+00
	5500000000	1.26E-01	6.65E-02	5.79E-02	-8.03E-01	0.00E+00	0.00E+00	0.00E+00	0.00E+00
	5550000000	1.86E-01	-1.31E-01	2.31E-01	-6.92E-01	0.00E+00	0.00E+00	0.00E+00	0.00E+00
	5600000000	4.79E-02	-2.04E-01	3.89E-01	-5.63E-01	0.00E+00	0.00E+00	0.00E+00	0.00E+00
	5650000000	3.84E-02	-1.37E-01	5.43E-01	-4.16E-01	0.00E+00	0.00E+00	0.00E+00	0.00E+00
	5700000000	8.82E-02	-1.46E-01	6.53E-01	-2.82E-01	0.00E+00	0.00E+00	0.00E+00	0.00E+00
	5750000000	1.24E-01	-2.32E-01	7.06E-01	-1.18E-01	0.00E+00	0.00E+00	0.00E+00	0.00E+00
	5800000000	5.53E-02	-3.25E-01	7.30E-01	4.53E-02	0.00E+00	0.00E+00	0.00E+00	0.00E+00
	5850000000	-6.25E-02	-3.17E-01	7.01E-01	2.10E-01	0.00E+00	0.00E+00	0.00E+00	0.00E+00
	5900000000	-7.92E-02	-2.22E-01	6.58E-01	3.79E-01	0.00E+00	0.00E+00	0.00E+00	0.00E+00
	5950000000	-7.42E-03	-2.36E-01	5.96E-01	4.87E-01	0.00E+00	0.00E+00	0.00E+00	0.00E+00
	6000000000	-1.19E-01	-2.80E-01	7.39E-01	3.45E-02	0.00E+00	0.00E+00	0.00E+00	0.00E+00
