! NanoVNA-App									
! Date: 2024-03-21 12:04:35									
! Start: 1GHz Stop: 6GHz Points: 101									
! S-Parameter data: F S11 S21 S12 S22									
# Hz S RI R 50									
!	Frequency	S11_Real	S11_Imag	S21_Real	S21_Imag	S12_Real	S12_Imag	S22_Real	S22_Imag
	1000000000	1.23E-01	-2.37E-02	-5.54E-01	-8.78E-01	0.00E+00	0.00E+00	0.00E+00	0.00E+00
	1050000000	5.29E-02	-2.25E-02	-3.72E-01	-9.65E-01	0.00E+00	0.00E+00	0.00E+00	0.00E+00
	1100000000	5.03E-02	-1.04E-02	-1.65E-01	-1.02E+00	0.00E+00	0.00E+00	0.00E+00	0.00E+00
	1150000000	3.10E-02	-4.58E-02	3.91E-02	-1.03E+00	0.00E+00	0.00E+00	0.00E+00	0.00E+00
	1200000000	-4.93E-02	-3.57E-02	2.43E-01	-9.88E-01	0.00E+00	0.00E+00	0.00E+00	0.00E+00
	1250000000	-7.68E-02	6.78E-02	4.50E-01	-9.08E-01	0.00E+00	0.00E+00	0.00E+00	0.00E+00
	1300000000	1.70E-02	1.36E-01	6.31E-01	-7.99E-01	0.00E+00	0.00E+00	0.00E+00	0.00E+00
	1350000000	1.03E-01	6.55E-02	7.71E-01	-6.51E-01	0.00E+00	0.00E+00	0.00E+00	0.00E+00
	1400000000	7.49E-02	4.72E-03	9.01E-01	-4.81E-01	0.00E+00	0.00E+00	0.00E+00	0.00E+00
	1450000000	1.85E-02	2.15E-02	9.72E-01	-2.99E-01	0.00E+00	0.00E+00	0.00E+00	0.00E+00
	1500000000	5.22E-02	6.36E-02	1.00E+00	-1.02E-01	0.00E+00	0.00E+00	0.00E+00	0.00E+00
	1550000000	9.42E-02	6.48E-03	9.88E-01	1.02E-01	0.00E+00	0.00E+00	0.00E+00	0.00E+00
	1600000000	1.13E-02	-5.42E-02	9.43E-01	2.94E-01	0.00E+00	0.00E+00	0.00E+00	0.00E+00
	1650000000	-9.26E-02	4.25E-02	8.55E-01	4.61E-01	0.00E+00	0.00E+00	0.00E+00	0.00E+00
	1700000000	-2.01E-02	2.01E-01	7.27E-01	6.03E-01	0.00E+00	0.00E+00	0.00E+00	0.00E+00
	1750000000	1.66E-01	1.96E-01	5.70E-01	7.34E-01	0.00E+00	0.00E+00	0.00E+00	0.00E+00
	1800000000	2.41E-01	3.71E-02	4.19E-01	8.42E-01	0.00E+00	0.00E+00	0.00E+00	0.00E+00
	1850000000	1.52E-01	-7.82E-02	2.66E-01	8.95E-01	0.00E+00	0.00E+00	0.00E+00	0.00E+00
	1900000000	5.86E-02	-5.86E-02	1.23E-01	9.08E-01	0.00E+00	0.00E+00	0.00E+00	0.00E+00
	1950000000	4.66E-02	-1.87E-02	5.99E-03	8.85E-01	0.00E+00	0.00E+00	0.00E+00	0.00E+00
	2000000000	7.22E-02	-1.50E-02	-5.08E-02	8.03E-01	0.00E+00	0.00E+00	0.00E+00	0.00E+00
	2050000000	6.16E-02	-1.85E-01	-3.83E-02	5.57E-01	0.00E+00	0.00E+00	0.00E+00	0.00E+00
	2100000000	-3.94E-01	-3.77E-02	-2.75E-01	1.97E-01	0.00E+00	0.00E+00	0.00E+00	0.00E+00
	2150000000	-1.85E-01	4.69E-01	-4.93E-01	6.03E-02	0.00E+00	0.00E+00	0.00E+00	0.00E+00
	2200000000	2.70E-01	4.79E-01	-5.93E-01	-5.72E-02	0.00E+00	0.00E+00	0.00E+00	0.00E+00
	2250000000	5.14E-01	1.71E-01	-6.27E-01	-1.66E-01	0.00E+00	0.00E+00	0.00E+00	0.00E+00
	2300000000	4.56E-01	-1.71E-01	-5.99E-01	-2.74E-01	0.00E+00	0.00E+00	0.00E+00	0.00E+00
	2350000000	2.00E-01	-3.50E-01	-5.28E-01	-3.82E-01	0.00E+00	0.00E+00	0.00E+00	0.00E+00
	2400000000	-8.72E-02	-3.05E-01	-4.42E-01	-4.76E-01	0.00E+00	0.00E+00	0.00E+00	0.00E+00
	2450000000	-2.36E-01	-6.77E-02	-3.51E-01	-5.33E-01	0.00E+00	0.00E+00	0.00E+00	0.00E+00
	2500000000	-1.13E-01	1.36E-01	-2.81E-01	-5.02E-01	0.00E+00	0.00E+00	0.00E+00	0.00E+00
	2550000000	-1.44E-01	1.29E-01	-1.80E-02	-3.42E-01	0.00E+00	0.00E+00	0.00E+00	0.00E+00
	2600000000	4.52E-02	3.59E-01	2.34E-01	-3.98E-01	0.00E+00	0.00E+00	0.00E+00	0.00E+00
	2650000000	3.28E-01	2.54E-01	3.78E-01	-3.76E-01	0.00E+00	0.00E+00	0.00E+00	0.00E+00
	2700000000	3.96E-01	-1.54E-02	5.02E-01	-2.98E-01	0.00E+00	0.00E+00	0.00E+00	0.00E+00
	2750000000	2.47E-01	-2.08E-01	6.08E-01	-1.86E-01	0.00E+00	0.00E+00	0.00E+00	0.00E+00
	2800000000	4.57E-02	-2.13E-01	6.96E-01	-6.00E-02	0.00E+00	0.00E+00	0.00E+00	0.00E+00
	2850000000	-5.72E-02	-9.11E-02	7.38E-01	6.02E-02	0.00E+00	0.00E+00	0.00E+00	0.00E+00
	2900000000	-3.86E-02	2.82E-02	7.18E-01	1.86E-01	0.00E+00	0.00E+00	0.00E+00	0.00E+00
	2950000000	1.68E-02	6.96E-02	6.43E-01	3.58E-01	0.00E+00	0.00E+00	0.00E+00	0.00E+00
	3000000000	1.00E-01	1.21E-01	5.98E-01	5.14E-01	0.00E+00	0.00E+00	0.00E+00	0.00E+00
	3050000000	2.11E-01	6.51E-02	4.96E-01	6.29E-01	0.00E+00	0.00E+00	0.00E+00	0.00E+00
	3100000000	2.28E-01	-6.04E-02	3.62E-01	7.37E-01	0.00E+00	0.00E+00	0.00E+00	0.00E+00
	3150000000	1.38E-01	-1.38E-01	2.32E-01	8.22E-01	0.00E+00	0.00E+00	0.00E+00	0.00E+00
	3200000000	4.51E-02	-1.07E-01	9.22E-02	8.48E-01	0.00E+00	0.00E+00	0.00E+00	0.00E+00
	3250000000	2.84E-02	-3.31E-02	-7.12E-02	8.35E-01	0.00E+00	0.00E+00	0.00E+00	0.00E+00
	3300000000	6.16E-02	7.48E-03	-2.35E-01	8.01E-01	0.00E+00	0.00E+00	0.00E+00	0.00E+00
	3350000000	9.05E-02	1.37E-02	-3.80E-01	7.35E-01	0.00E+00	0.00E+00	0.00E+00	0.00E+00
	3400000000	9.42E-02	2.91E-02	-4.93E-01	6.52E-01	0.00E+00	0.00E+00	0.00E+00	0.00E+00
	3450000000	1.82E-01	9.47E-02	-5.16E-01	5.07E-01	0.00E+00	0.00E+00	0.00E+00	0.00E+00
	3500000000	2.74E-01	-8.40E-03	-5.81E-01	2.75E-01	0.00E+00	0.00E+00	0.00E+00	0.00E+00
	3550000000	2.64E-01	-1.52E-01	-6.56E-01	2.56E-02	0.00E+00	0.00E+00	0.00E+00	0.00E+00
	3600000000	1.44E-01	-1.93E-01	-7.25E-01	-1.43E-01	0.00E+00	0.00E+00	0.00E+00	0.00E+00
	3650000000	7.58E-02	-1.67E-01	-7.14E-01	-3.04E-01	0.00E+00	0.00E+00	0.00E+00	0.00E+00
	3700000000	2.51E-02	-1.32E-01	-6.60E-01	-4.76E-01	0.00E+00	0.00E+00	0.00E+00	0.00E+00
	3750000000	-1.11E-02	-6.26E-02	-5.88E-01	-6.27E-01	0.00E+00	0.00E+00	0.00E+00	0.00E+00
	3800000000	1.89E-02	1.90E-02	-4.77E-01	-7.26E-01	0.00E+00	0.00E+00	0.00E+00	0.00E+00
	3850000000	8.16E-02	3.61E-02	-3.13E-01	-8.01E-01	0.00E+00	0.00E+00	0.00E+00	0.00E+00
	3900000000	9.64E-02	3.40E-02	-1.35E-01	-8.61E-01	0.00E+00	0.00E+00	0.00E+00	0.00E+00
	3950000000	1.34E-01	8.68E-02	3.26E-02	-8.60E-01	0.00E+00	0.00E+00	0.00E+00	0.00E+00
	4000000000	2.73E-01	8.45E-02	2.39E-01	-8.10E-01	0.00E+00	0.00E+00	0.00E+00	0.00E+00
	4050000000	3.82E-01	-8.02E-02	4.42E-01	-7.60E-01	0.00E+00	0.00E+00	0.00E+00	0.00E+00
	4100000000	3.08E-01	-2.96E-01	5.88E-01	-6.82E-01	0.00E+00	0.00E+00	0.00E+00	0.00E+00
	4150000000	8.89E-02	-3.77E-01	7.17E-01	-5.35E-01	0.00E+00	0.00E+00	0.00E+00	0.00E+00
	4200000000	-9.04E-02	-2.74E-01	8.47E-01	-3.78E-01	0.00E+00	0.00E+00	0.00E+00	0.00E+00
	4250000000	-1.34E-01	-1.37E-01	9.10E-01	-2.36E-01	0.00E+00	0.00E+00	0.00E+00	0.00E+00
	4300000000	-1.52E-01	-3.27E-02	9.11E-01	-5.03E-02	0.00E+00	0.00E+00	0.00E+00	0.00E+00
	4350000000	-1.24E-01	1.42E-01	8.94E-01	1.34E-01	0.00E+00	0.00E+00	0.00E+00	0.00E+00
	4400000000	9.51E-02	2.84E-01	8.15E-01	3.02E-01	0.00E+00	0.00E+00	0.00E+00	0.00E+00
	4450000000	3.83E-01	1.74E-01	6.88E-01	4.73E-01	0.00E+00	0.00E+00	0.00E+00	0.00E+00
	4500000000	4.70E-01	-1.20E-01	5.50E-01	6.33E-01	0.00E+00	0.00E+00	0.00E+00	0.00E+00
	4550000000	3.15E-01	-3.45E-01	3.81E-01	7.42E-01	0.00E+00	0.00E+00	0.00E+00	0.00E+00
	4600000000	1.07E-01	-3.54E-01	1.78E-01	8.31E-01	0.00E+00	0.00E+00	0.00E+00	0.00E+00
	4650000000	3.36E-02	-3.04E-01	-2.24E-02	8.73E-01	0.00E+00	0.00E+00	0.00E+00	0.00E+00
	4700000000	-7.01E-02	-2.41E-01	-2.48E-01	8.82E-01	0.00E+00	0.00E+00	0.00E+00	0.00E+00
	4750000000	-1.14E-01	-1.62E-01	-4.29E-01	8.18E-01	0.00E+00	0.00E+00	0.00E+00	0.00E+00
	4800000000	-1.34E-01	7.04E-03	-6.94E-01	7.29E-01	0.00E+00	0.00E+00	0.00E+00	0.00E+00
	4850000000	5.68E-02	1.40E-01	-9.34E-01	7.01E-01	0.00E+00	0.00E+00	0.00E+00	0.00E+00
	4900000000	2.53E-01	8.81E-03	-1.04E+00	6.62E-01	0.00E+00	0.00E+00	0.00E+00	0.00E+00
	4950000000	1.97E-01	-1.89E-01	-1.05E+00	5.34E-01	0.00E+00	0.00E+00	0.00E+00	0.00E+00
	5000000000	1.88E-02	-1.65E-01	-1.07E+00	3.46E-01	0.00E+00	0.00E+00	0.00E+00	0.00E+00
	5050000000	4.79E-02	9.02E-03	-1.09E+00	5.72E-02	0.00E+00	0.00E+00	0.00E+00	0.00E+00
	5100000000	2.47E-01	-2.01E-02	-1.08E+00	-4.39E-02	0.00E+00	0.00E+00	0.00E+00	0.00E+00
	5150000000	2.68E-01	-2.41E-01	-9.92E-01	-2.11E-01	0.00E+00	0.00E+00	0.00E+00	0.00E+00
	5200000000	6.60E-02	-3.44E-01	-8.72E-01	-3.80E-01	0.00E+00	0.00E+00	0.00E+00	0.00E+00
	5250000000	-7.60E-02	-2.30E-01	-7.40E-01	-5.54E-01	0.00E+00	0.00E+00	0.00E+00	0.00E+00
	5300000000	-3.60E-02	-1.43E-01	-5.95E-01	-6.90E-01	0.00E+00	0.00E+00	0.00E+00	0.00E+00
	5350000000	-5.43E-02	-1.88E-01	-4.43E-01	-7.49E-01	0.00E+00	0.00E+00	0.00E+00	0.00E+00
	5400000000	-1.63E-01	-1.12E-01	-2.30E-01	-8.01E-01	0.00E+00	0.00E+00	0.00E+00	0.00E+00
	5450000000	-1.03E-01	7.29E-02	-5.41E-02	-8.46E-01	0.00E+00	0.00E+00	0.00E+00	0.00E+00
	5500000000	1.21E-01	6.72E-02	8.43E-02	-8.06E-01	0.00E+00	0.00E+00	0.00E+00	0.00E+00
	5550000000	1.83E-01	-1.27E-01	2.40E-01	-6.97E-01	0.00E+00	0.00E+00	0.00E+00	0.00E+00
	5600000000	4.48E-02	-2.01E-01	4.10E-01	-5.56E-01	0.00E+00	0.00E+00	0.00E+00	0.00E+00
	5650000000	3.65E-02	-1.33E-01	5.59E-01	-4.05E-01	0.00E+00	0.00E+00	0.00E+00	0.00E+00
	5700000000	8.89E-02	-1.41E-01	6.68E-01	-2.65E-01	0.00E+00	0.00E+00	0.00E+00	0.00E+00
	5750000000	1.25E-01	-2.29E-01	7.16E-01	-1.03E-01	0.00E+00	0.00E+00	0.00E+00	0.00E+00
	5800000000	5.39E-02	-3.24E-01	7.34E-01	6.49E-02	0.00E+00	0.00E+00	0.00E+00	0.00E+00
	5850000000	-6.87E-02	-3.17E-01	7.01E-01	2.30E-01	0.00E+00	0.00E+00	0.00E+00	0.00E+00
	5900000000	-8.72E-02	-2.20E-01	6.57E-01	3.97E-01	0.00E+00	0.00E+00	0.00E+00	0.00E+00
	5950000000	-1.77E-02	-2.30E-01	5.91E-01	5.07E-01	0.00E+00	0.00E+00	0.00E+00	0.00E+00
	6000000000	-1.25E-01	-2.70E-01	7.47E-01	5.33E-02	0.00E+00	0.00E+00	0.00E+00	0.00E+00
