! NanoVNA-App									
! Date: 2024-03-21 15:35:56									
! Start: 1GHz Stop: 6GHz Points: 101									
! S-Parameter data: F S11 S21 S12 S22									
# Hz S RI R 50									
!	Frequency	S11_Real	S11_Imag	S21_Real	S21_Imag	S12_Real	S12_Imag	S22_Real	S22_Imag
	1000000000	1.21E-01	-2.30E-02	-5.58E-01	-8.76E-01	0.00E+00	0.00E+00	0.00E+00	0.00E+00
	1050000000	5.19E-02	-2.20E-02	-3.78E-01	-9.63E-01	0.00E+00	0.00E+00	0.00E+00	0.00E+00
	1100000000	4.96E-02	-1.13E-02	-1.72E-01	-1.02E+00	0.00E+00	0.00E+00	0.00E+00	0.00E+00
	1150000000	2.93E-02	-4.72E-02	3.42E-02	-1.03E+00	0.00E+00	0.00E+00	0.00E+00	0.00E+00
	1200000000	-5.17E-02	-3.67E-02	2.40E-01	-9.90E-01	0.00E+00	0.00E+00	0.00E+00	0.00E+00
	1250000000	-7.90E-02	6.70E-02	4.46E-01	-9.12E-01	0.00E+00	0.00E+00	0.00E+00	0.00E+00
	1300000000	1.47E-02	1.35E-01	6.28E-01	-8.04E-01	0.00E+00	0.00E+00	0.00E+00	0.00E+00
	1350000000	1.00E-01	6.58E-02	7.68E-01	-6.58E-01	0.00E+00	0.00E+00	0.00E+00	0.00E+00
	1400000000	7.26E-02	4.64E-03	9.00E-01	-4.88E-01	0.00E+00	0.00E+00	0.00E+00	0.00E+00
	1450000000	1.75E-02	2.26E-02	9.72E-01	-3.05E-01	0.00E+00	0.00E+00	0.00E+00	0.00E+00
	1500000000	5.34E-02	6.36E-02	1.00E+00	-1.07E-01	0.00E+00	0.00E+00	0.00E+00	0.00E+00
	1550000000	9.60E-02	4.73E-03	9.92E-01	9.75E-02	0.00E+00	0.00E+00	0.00E+00	0.00E+00
	1600000000	1.27E-02	-5.85E-02	9.44E-01	2.87E-01	0.00E+00	0.00E+00	0.00E+00	0.00E+00
	1650000000	-9.38E-02	3.68E-02	8.60E-01	4.57E-01	0.00E+00	0.00E+00	0.00E+00	0.00E+00
	1700000000	-2.52E-02	1.96E-01	7.33E-01	6.03E-01	0.00E+00	0.00E+00	0.00E+00	0.00E+00
	1750000000	1.59E-01	1.96E-01	5.77E-01	7.35E-01	0.00E+00	0.00E+00	0.00E+00	0.00E+00
	1800000000	2.36E-01	4.15E-02	4.28E-01	8.43E-01	0.00E+00	0.00E+00	0.00E+00	0.00E+00
	1850000000	1.52E-01	-7.10E-02	2.73E-01	8.99E-01	0.00E+00	0.00E+00	0.00E+00	0.00E+00
	1900000000	6.54E-02	-5.35E-02	1.29E-01	9.13E-01	0.00E+00	0.00E+00	0.00E+00	0.00E+00
	1950000000	5.60E-02	-2.06E-02	1.25E-02	8.91E-01	0.00E+00	0.00E+00	0.00E+00	0.00E+00
	2000000000	7.99E-02	-2.43E-02	-4.25E-02	8.09E-01	0.00E+00	0.00E+00	0.00E+00	0.00E+00
	2050000000	5.69E-02	-2.03E-01	-3.68E-02	5.56E-01	0.00E+00	0.00E+00	0.00E+00	0.00E+00
	2100000000	-3.99E-01	-3.50E-02	-2.90E-01	2.01E-01	0.00E+00	0.00E+00	0.00E+00	0.00E+00
	2150000000	-1.93E-01	4.69E-01	-5.04E-01	6.97E-02	0.00E+00	0.00E+00	0.00E+00	0.00E+00
	2200000000	2.62E-01	4.84E-01	-6.06E-01	-4.75E-02	0.00E+00	0.00E+00	0.00E+00	0.00E+00
	2250000000	5.12E-01	1.82E-01	-6.43E-01	-1.56E-01	0.00E+00	0.00E+00	0.00E+00	0.00E+00
	2300000000	4.64E-01	-1.60E-01	-6.18E-01	-2.65E-01	0.00E+00	0.00E+00	0.00E+00	0.00E+00
	2350000000	2.17E-01	-3.50E-01	-5.52E-01	-3.75E-01	0.00E+00	0.00E+00	0.00E+00	0.00E+00
	2400000000	-7.23E-02	-3.19E-01	-4.67E-01	-4.69E-01	0.00E+00	0.00E+00	0.00E+00	0.00E+00
	2450000000	-2.41E-01	-9.28E-02	-3.79E-01	-5.31E-01	0.00E+00	0.00E+00	0.00E+00	0.00E+00
	2500000000	-1.34E-01	1.26E-01	-3.14E-01	-5.01E-01	0.00E+00	0.00E+00	0.00E+00	0.00E+00
	2550000000	-1.71E-01	1.40E-01	-4.14E-02	-3.42E-01	0.00E+00	0.00E+00	0.00E+00	0.00E+00
	2600000000	4.09E-02	3.83E-01	2.04E-01	-4.06E-01	0.00E+00	0.00E+00	0.00E+00	0.00E+00
	2650000000	3.42E-01	2.70E-01	3.46E-01	-3.86E-01	0.00E+00	0.00E+00	0.00E+00	0.00E+00
	2700000000	4.18E-01	-1.54E-02	4.74E-01	-3.10E-01	0.00E+00	0.00E+00	0.00E+00	0.00E+00
	2750000000	2.63E-01	-2.24E-01	5.81E-01	-2.00E-01	0.00E+00	0.00E+00	0.00E+00	0.00E+00
	2800000000	4.18E-02	-2.33E-01	6.67E-01	-7.96E-02	0.00E+00	0.00E+00	0.00E+00	0.00E+00
	2850000000	-7.79E-02	-1.05E-01	7.18E-01	4.16E-02	0.00E+00	0.00E+00	0.00E+00	0.00E+00
	2900000000	-6.03E-02	3.57E-02	7.04E-01	1.64E-01	0.00E+00	0.00E+00	0.00E+00	0.00E+00
	2950000000	1.14E-02	8.84E-02	6.31E-01	3.37E-01	0.00E+00	0.00E+00	0.00E+00	0.00E+00
	3000000000	1.11E-01	1.34E-01	5.90E-01	4.94E-01	0.00E+00	0.00E+00	0.00E+00	0.00E+00
	3050000000	2.24E-01	6.42E-02	4.95E-01	6.09E-01	0.00E+00	0.00E+00	0.00E+00	0.00E+00
	3100000000	2.36E-01	-6.96E-02	3.65E-01	7.20E-01	0.00E+00	0.00E+00	0.00E+00	0.00E+00
	3150000000	1.41E-01	-1.49E-01	2.40E-01	8.05E-01	0.00E+00	0.00E+00	0.00E+00	0.00E+00
	3200000000	4.03E-02	-1.16E-01	1.04E-01	8.32E-01	0.00E+00	0.00E+00	0.00E+00	0.00E+00
	3250000000	2.07E-02	-3.51E-02	-5.63E-02	8.22E-01	0.00E+00	0.00E+00	0.00E+00	0.00E+00
	3300000000	5.75E-02	1.16E-02	-2.15E-01	7.89E-01	0.00E+00	0.00E+00	0.00E+00	0.00E+00
	3350000000	9.22E-02	1.77E-02	-3.61E-01	7.28E-01	0.00E+00	0.00E+00	0.00E+00	0.00E+00
	3400000000	9.62E-02	2.98E-02	-4.75E-01	6.49E-01	0.00E+00	0.00E+00	0.00E+00	0.00E+00
	3450000000	1.85E-01	9.64E-02	-5.00E-01	5.07E-01	0.00E+00	0.00E+00	0.00E+00	0.00E+00
	3500000000	2.80E-01	-5.60E-03	-5.65E-01	2.79E-01	0.00E+00	0.00E+00	0.00E+00	0.00E+00
	3550000000	2.71E-01	-1.53E-01	-6.40E-01	3.55E-02	0.00E+00	0.00E+00	0.00E+00	0.00E+00
	3600000000	1.49E-01	-1.97E-01	-7.11E-01	-1.40E-01	0.00E+00	0.00E+00	0.00E+00	0.00E+00
	3650000000	7.56E-02	-1.72E-01	-7.05E-01	-2.93E-01	0.00E+00	0.00E+00	0.00E+00	0.00E+00
	3700000000	2.18E-02	-1.34E-01	-6.52E-01	-4.67E-01	0.00E+00	0.00E+00	0.00E+00	0.00E+00
	3750000000	-1.42E-02	-6.06E-02	-5.84E-01	-6.16E-01	0.00E+00	0.00E+00	0.00E+00	0.00E+00
	3800000000	1.69E-02	2.34E-02	-4.78E-01	-7.14E-01	0.00E+00	0.00E+00	0.00E+00	0.00E+00
	3850000000	8.22E-02	4.15E-02	-3.15E-01	-7.92E-01	0.00E+00	0.00E+00	0.00E+00	0.00E+00
	3900000000	1.01E-01	3.97E-02	-1.39E-01	-8.53E-01	0.00E+00	0.00E+00	0.00E+00	0.00E+00
	3950000000	1.41E-01	8.77E-02	2.67E-02	-8.52E-01	0.00E+00	0.00E+00	0.00E+00	0.00E+00
	4000000000	2.76E-01	7.97E-02	2.34E-01	-8.04E-01	0.00E+00	0.00E+00	0.00E+00	0.00E+00
	4050000000	3.79E-01	-8.45E-02	4.36E-01	-7.58E-01	0.00E+00	0.00E+00	0.00E+00	0.00E+00
	4100000000	3.03E-01	-2.96E-01	5.82E-01	-6.83E-01	0.00E+00	0.00E+00	0.00E+00	0.00E+00
	4150000000	8.43E-02	-3.75E-01	7.12E-01	-5.38E-01	0.00E+00	0.00E+00	0.00E+00	0.00E+00
	4200000000	-9.34E-02	-2.71E-01	8.44E-01	-3.87E-01	0.00E+00	0.00E+00	0.00E+00	0.00E+00
	4250000000	-1.34E-01	-1.33E-01	9.06E-01	-2.46E-01	0.00E+00	0.00E+00	0.00E+00	0.00E+00
	4300000000	-1.50E-01	-3.22E-02	9.10E-01	-6.00E-02	0.00E+00	0.00E+00	0.00E+00	0.00E+00
	4350000000	-1.22E-01	1.39E-01	8.95E-01	1.23E-01	0.00E+00	0.00E+00	0.00E+00	0.00E+00
	4400000000	9.41E-02	2.79E-01	8.18E-01	2.89E-01	0.00E+00	0.00E+00	0.00E+00	0.00E+00
	4450000000	3.79E-01	1.70E-01	6.90E-01	4.65E-01	0.00E+00	0.00E+00	0.00E+00	0.00E+00
	4500000000	4.66E-01	-1.23E-01	5.58E-01	6.26E-01	0.00E+00	0.00E+00	0.00E+00	0.00E+00
	4550000000	3.10E-01	-3.46E-01	3.91E-01	7.35E-01	0.00E+00	0.00E+00	0.00E+00	0.00E+00
	4600000000	1.06E-01	-3.51E-01	1.90E-01	8.26E-01	0.00E+00	0.00E+00	0.00E+00	0.00E+00
	4650000000	3.71E-02	-3.03E-01	-3.75E-03	8.69E-01	0.00E+00	0.00E+00	0.00E+00	0.00E+00
	4700000000	-6.45E-02	-2.42E-01	-2.34E-01	8.83E-01	0.00E+00	0.00E+00	0.00E+00	0.00E+00
	4750000000	-1.07E-01	-1.68E-01	-4.18E-01	8.18E-01	0.00E+00	0.00E+00	0.00E+00	0.00E+00
	4800000000	-1.30E-01	1.43E-04	-6.77E-01	7.40E-01	0.00E+00	0.00E+00	0.00E+00	0.00E+00
	4850000000	5.76E-02	1.31E-01	-9.15E-01	7.15E-01	0.00E+00	0.00E+00	0.00E+00	0.00E+00
	4900000000	2.51E-01	2.57E-03	-1.02E+00	6.82E-01	0.00E+00	0.00E+00	0.00E+00	0.00E+00
	4950000000	1.93E-01	-1.91E-01	-1.03E+00	5.53E-01	0.00E+00	0.00E+00	0.00E+00	0.00E+00
	5000000000	1.79E-02	-1.63E-01	-1.06E+00	3.66E-01	0.00E+00	0.00E+00	0.00E+00	0.00E+00
	5050000000	5.27E-02	1.25E-02	-1.08E+00	8.33E-02	0.00E+00	0.00E+00	0.00E+00	0.00E+00
	5100000000	2.55E-01	-2.00E-02	-1.07E+00	-1.99E-02	0.00E+00	0.00E+00	0.00E+00	0.00E+00
	5150000000	2.74E-01	-2.44E-01	-9.89E-01	-1.84E-01	0.00E+00	0.00E+00	0.00E+00	0.00E+00
	5200000000	7.12E-02	-3.49E-01	-8.75E-01	-3.56E-01	0.00E+00	0.00E+00	0.00E+00	0.00E+00
	5250000000	-7.50E-02	-2.33E-01	-7.48E-01	-5.31E-01	0.00E+00	0.00E+00	0.00E+00	0.00E+00
	5300000000	-3.66E-02	-1.47E-01	-6.10E-01	-6.72E-01	0.00E+00	0.00E+00	0.00E+00	0.00E+00
	5350000000	-5.51E-02	-1.87E-01	-4.61E-01	-7.32E-01	0.00E+00	0.00E+00	0.00E+00	0.00E+00
	5400000000	-1.59E-01	-1.10E-01	-2.51E-01	-7.89E-01	0.00E+00	0.00E+00	0.00E+00	0.00E+00
	5450000000	-9.76E-02	7.47E-02	-7.53E-02	-8.39E-01	0.00E+00	0.00E+00	0.00E+00	0.00E+00
	5500000000	1.27E-01	6.45E-02	5.65E-02	-8.04E-01	0.00E+00	0.00E+00	0.00E+00	0.00E+00
	5550000000	1.85E-01	-1.31E-01	2.31E-01	-6.91E-01	0.00E+00	0.00E+00	0.00E+00	0.00E+00
	5600000000	4.59E-02	-2.02E-01	3.89E-01	-5.62E-01	0.00E+00	0.00E+00	0.00E+00	0.00E+00
	5650000000	4.02E-02	-1.37E-01	5.43E-01	-4.14E-01	0.00E+00	0.00E+00	0.00E+00	0.00E+00
	5700000000	8.77E-02	-1.47E-01	6.53E-01	-2.84E-01	0.00E+00	0.00E+00	0.00E+00	0.00E+00
	5750000000	1.24E-01	-2.32E-01	7.07E-01	-1.21E-01	0.00E+00	0.00E+00	0.00E+00	0.00E+00
	5800000000	5.80E-02	-3.25E-01	7.30E-01	4.45E-02	0.00E+00	0.00E+00	0.00E+00	0.00E+00
	5850000000	-6.15E-02	-3.19E-01	7.03E-01	2.07E-01	0.00E+00	0.00E+00	0.00E+00	0.00E+00
	5900000000	-7.90E-02	-2.24E-01	6.60E-01	3.77E-01	0.00E+00	0.00E+00	0.00E+00	0.00E+00
	5950000000	-7.14E-03	-2.37E-01	5.96E-01	4.88E-01	0.00E+00	0.00E+00	0.00E+00	0.00E+00
	6000000000	-1.21E-01	-2.80E-01	7.40E-01	3.06E-02	0.00E+00	0.00E+00	0.00E+00	0.00E+00
