! NanoVNA-App									
! Date: 2024-03-21 16:19:13									
! Start: 1GHz Stop: 6GHz Points: 101									
! S-Parameter data: F S11 S21 S12 S22									
# Hz S RI R 50									
!	Frequency	S11_Real	S11_Imag	S21_Real	S21_Imag	S12_Real	S12_Imag	S22_Real	S22_Imag
	1000000000	1.21E-01	-2.29E-02	-5.58E-01	-8.75E-01	0.00E+00	0.00E+00	0.00E+00	0.00E+00
	1050000000	5.20E-02	-2.22E-02	-3.78E-01	-9.62E-01	0.00E+00	0.00E+00	0.00E+00	0.00E+00
	1100000000	4.96E-02	-1.15E-02	-1.71E-01	-1.02E+00	0.00E+00	0.00E+00	0.00E+00	0.00E+00
	1150000000	2.89E-02	-4.78E-02	3.25E-02	-1.03E+00	0.00E+00	0.00E+00	0.00E+00	0.00E+00
	1200000000	-5.22E-02	-3.68E-02	2.40E-01	-9.89E-01	0.00E+00	0.00E+00	0.00E+00	0.00E+00
	1250000000	-7.94E-02	6.71E-02	4.45E-01	-9.11E-01	0.00E+00	0.00E+00	0.00E+00	0.00E+00
	1300000000	1.44E-02	1.36E-01	6.27E-01	-8.04E-01	0.00E+00	0.00E+00	0.00E+00	0.00E+00
	1350000000	1.00E-01	6.59E-02	7.68E-01	-6.59E-01	0.00E+00	0.00E+00	0.00E+00	0.00E+00
	1400000000	7.26E-02	4.85E-03	8.98E-01	-4.87E-01	0.00E+00	0.00E+00	0.00E+00	0.00E+00
	1450000000	1.77E-02	2.25E-02	9.72E-01	-3.04E-01	0.00E+00	0.00E+00	0.00E+00	0.00E+00
	1500000000	5.32E-02	6.34E-02	1.00E+00	-1.07E-01	0.00E+00	0.00E+00	0.00E+00	0.00E+00
	1550000000	9.59E-02	4.61E-03	9.92E-01	9.70E-02	0.00E+00	0.00E+00	0.00E+00	0.00E+00
	1600000000	1.27E-02	-5.83E-02	9.44E-01	2.87E-01	0.00E+00	0.00E+00	0.00E+00	0.00E+00
	1650000000	-9.35E-02	3.64E-02	8.60E-01	4.58E-01	0.00E+00	0.00E+00	0.00E+00	0.00E+00
	1700000000	-2.55E-02	1.95E-01	7.34E-01	6.02E-01	0.00E+00	0.00E+00	0.00E+00	0.00E+00
	1750000000	1.59E-01	1.96E-01	5.77E-01	7.36E-01	0.00E+00	0.00E+00	0.00E+00	0.00E+00
	1800000000	2.35E-01	4.15E-02	4.26E-01	8.45E-01	0.00E+00	0.00E+00	0.00E+00	0.00E+00
	1850000000	1.51E-01	-7.01E-02	2.72E-01	8.99E-01	0.00E+00	0.00E+00	0.00E+00	0.00E+00
	1900000000	6.59E-02	-5.24E-02	1.28E-01	9.14E-01	0.00E+00	0.00E+00	0.00E+00	0.00E+00
	1950000000	5.80E-02	-2.03E-02	1.54E-02	8.93E-01	0.00E+00	0.00E+00	0.00E+00	0.00E+00
	2000000000	8.17E-02	-2.68E-02	-3.91E-02	8.08E-01	0.00E+00	0.00E+00	0.00E+00	0.00E+00
	2050000000	4.95E-02	-2.08E-01	-3.38E-02	5.50E-01	0.00E+00	0.00E+00	0.00E+00	0.00E+00
	2100000000	-4.01E-01	-2.84E-02	-2.95E-01	2.00E-01	0.00E+00	0.00E+00	0.00E+00	0.00E+00
	2150000000	-1.88E-01	4.70E-01	-5.06E-01	7.08E-02	0.00E+00	0.00E+00	0.00E+00	0.00E+00
	2200000000	2.64E-01	4.81E-01	-6.07E-01	-4.60E-02	0.00E+00	0.00E+00	0.00E+00	0.00E+00
	2250000000	5.11E-01	1.80E-01	-6.43E-01	-1.57E-01	0.00E+00	0.00E+00	0.00E+00	0.00E+00
	2300000000	4.61E-01	-1.61E-01	-6.19E-01	-2.65E-01	0.00E+00	0.00E+00	0.00E+00	0.00E+00
	2350000000	2.17E-01	-3.46E-01	-5.51E-01	-3.77E-01	0.00E+00	0.00E+00	0.00E+00	0.00E+00
	2400000000	-7.23E-02	-3.16E-01	-4.66E-01	-4.69E-01	0.00E+00	0.00E+00	0.00E+00	0.00E+00
	2450000000	-2.39E-01	-9.16E-02	-3.80E-01	-5.30E-01	0.00E+00	0.00E+00	0.00E+00	0.00E+00
	2500000000	-1.33E-01	1.24E-01	-3.12E-01	-5.00E-01	0.00E+00	0.00E+00	0.00E+00	0.00E+00
	2550000000	-1.72E-01	1.39E-01	-4.01E-02	-3.44E-01	0.00E+00	0.00E+00	0.00E+00	0.00E+00
	2600000000	3.84E-02	3.83E-01	2.07E-01	-4.08E-01	0.00E+00	0.00E+00	0.00E+00	0.00E+00
	2650000000	3.43E-01	2.70E-01	3.50E-01	-3.93E-01	0.00E+00	0.00E+00	0.00E+00	0.00E+00
	2700000000	4.16E-01	-1.80E-02	4.74E-01	-3.17E-01	0.00E+00	0.00E+00	0.00E+00	0.00E+00
	2750000000	2.60E-01	-2.23E-01	5.81E-01	-2.06E-01	0.00E+00	0.00E+00	0.00E+00	0.00E+00
	2800000000	4.47E-02	-2.31E-01	6.68E-01	-7.91E-02	0.00E+00	0.00E+00	0.00E+00	0.00E+00
	2850000000	-7.62E-02	-1.04E-01	7.19E-01	3.75E-02	0.00E+00	0.00E+00	0.00E+00	0.00E+00
	2900000000	-5.95E-02	3.46E-02	7.04E-01	1.62E-01	0.00E+00	0.00E+00	0.00E+00	0.00E+00
	2950000000	1.01E-02	8.78E-02	6.33E-01	3.35E-01	0.00E+00	0.00E+00	0.00E+00	0.00E+00
	3000000000	1.11E-01	1.34E-01	5.92E-01	4.91E-01	0.00E+00	0.00E+00	0.00E+00	0.00E+00
	3050000000	2.24E-01	6.37E-02	4.99E-01	6.05E-01	0.00E+00	0.00E+00	0.00E+00	0.00E+00
	3100000000	2.36E-01	-6.90E-02	3.68E-01	7.17E-01	0.00E+00	0.00E+00	0.00E+00	0.00E+00
	3150000000	1.40E-01	-1.48E-01	2.42E-01	8.04E-01	0.00E+00	0.00E+00	0.00E+00	0.00E+00
	3200000000	4.07E-02	-1.15E-01	1.11E-01	8.31E-01	0.00E+00	0.00E+00	0.00E+00	0.00E+00
	3250000000	2.13E-02	-3.51E-02	-5.23E-02	8.21E-01	0.00E+00	0.00E+00	0.00E+00	0.00E+00
	3300000000	5.76E-02	1.11E-02	-2.12E-01	7.89E-01	0.00E+00	0.00E+00	0.00E+00	0.00E+00
	3350000000	9.19E-02	1.74E-02	-3.57E-01	7.28E-01	0.00E+00	0.00E+00	0.00E+00	0.00E+00
	3400000000	9.63E-02	3.17E-02	-4.72E-01	6.48E-01	0.00E+00	0.00E+00	0.00E+00	0.00E+00
	3450000000	1.89E-01	9.49E-02	-4.99E-01	5.07E-01	0.00E+00	0.00E+00	0.00E+00	0.00E+00
	3500000000	2.79E-01	-8.64E-03	-5.64E-01	2.83E-01	0.00E+00	0.00E+00	0.00E+00	0.00E+00
	3550000000	2.68E-01	-1.52E-01	-6.39E-01	3.85E-02	0.00E+00	0.00E+00	0.00E+00	0.00E+00
	3600000000	1.49E-01	-1.97E-01	-7.10E-01	-1.31E-01	0.00E+00	0.00E+00	0.00E+00	0.00E+00
	3650000000	7.51E-02	-1.72E-01	-7.03E-01	-2.89E-01	0.00E+00	0.00E+00	0.00E+00	0.00E+00
	3700000000	2.10E-02	-1.33E-01	-6.51E-01	-4.63E-01	0.00E+00	0.00E+00	0.00E+00	0.00E+00
	3750000000	-1.41E-02	-5.87E-02	-5.83E-01	-6.11E-01	0.00E+00	0.00E+00	0.00E+00	0.00E+00
	3800000000	1.80E-02	2.50E-02	-4.76E-01	-7.13E-01	0.00E+00	0.00E+00	0.00E+00	0.00E+00
	3850000000	8.46E-02	4.21E-02	-3.13E-01	-7.90E-01	0.00E+00	0.00E+00	0.00E+00	0.00E+00
	3900000000	1.02E-01	3.82E-02	-1.40E-01	-8.50E-01	0.00E+00	0.00E+00	0.00E+00	0.00E+00
	3950000000	1.41E-01	8.53E-02	2.97E-02	-8.51E-01	0.00E+00	0.00E+00	0.00E+00	0.00E+00
	4000000000	2.75E-01	7.86E-02	2.33E-01	-8.03E-01	0.00E+00	0.00E+00	0.00E+00	0.00E+00
	4050000000	3.77E-01	-8.31E-02	4.36E-01	-7.58E-01	0.00E+00	0.00E+00	0.00E+00	0.00E+00
	4100000000	3.02E-01	-2.94E-01	5.82E-01	-6.83E-01	0.00E+00	0.00E+00	0.00E+00	0.00E+00
	4150000000	8.53E-02	-3.74E-01	7.13E-01	-5.38E-01	0.00E+00	0.00E+00	0.00E+00	0.00E+00
	4200000000	-9.23E-02	-2.70E-01	8.44E-01	-3.88E-01	0.00E+00	0.00E+00	0.00E+00	0.00E+00
	4250000000	-1.33E-01	-1.34E-01	9.07E-01	-2.46E-01	0.00E+00	0.00E+00	0.00E+00	0.00E+00
	4300000000	-1.49E-01	-3.39E-02	9.10E-01	-5.86E-02	0.00E+00	0.00E+00	0.00E+00	0.00E+00
	4350000000	-1.23E-01	1.37E-01	8.95E-01	1.23E-01	0.00E+00	0.00E+00	0.00E+00	0.00E+00
	4400000000	9.22E-02	2.79E-01	8.18E-01	2.90E-01	0.00E+00	0.00E+00	0.00E+00	0.00E+00
	4450000000	3.78E-01	1.70E-01	6.92E-01	4.62E-01	0.00E+00	0.00E+00	0.00E+00	0.00E+00
	4500000000	4.66E-01	-1.22E-01	5.58E-01	6.28E-01	0.00E+00	0.00E+00	0.00E+00	0.00E+00
	4550000000	3.11E-01	-3.46E-01	3.91E-01	7.36E-01	0.00E+00	0.00E+00	0.00E+00	0.00E+00
	4600000000	1.05E-01	-3.50E-01	1.92E-01	8.28E-01	0.00E+00	0.00E+00	0.00E+00	0.00E+00
	4650000000	3.87E-02	-3.03E-01	-4.10E-03	8.69E-01	0.00E+00	0.00E+00	0.00E+00	0.00E+00
	4700000000	-6.37E-02	-2.43E-01	-2.34E-01	8.84E-01	0.00E+00	0.00E+00	0.00E+00	0.00E+00
	4750000000	-1.07E-01	-1.69E-01	-4.14E-01	8.20E-01	0.00E+00	0.00E+00	0.00E+00	0.00E+00
	4800000000	-1.30E-01	-2.39E-03	-6.74E-01	7.42E-01	0.00E+00	0.00E+00	0.00E+00	0.00E+00
	4850000000	5.69E-02	1.31E-01	-9.09E-01	7.22E-01	0.00E+00	0.00E+00	0.00E+00	0.00E+00
	4900000000	2.50E-01	2.26E-03	-1.02E+00	6.84E-01	0.00E+00	0.00E+00	0.00E+00	0.00E+00
	4950000000	1.93E-01	-1.91E-01	-1.03E+00	5.53E-01	0.00E+00	0.00E+00	0.00E+00	0.00E+00
	5000000000	1.82E-02	-1.61E-01	-1.05E+00	3.67E-01	0.00E+00	0.00E+00	0.00E+00	0.00E+00
	5050000000	5.41E-02	1.34E-02	-1.08E+00	8.65E-02	0.00E+00	0.00E+00	0.00E+00	0.00E+00
	5100000000	2.56E-01	-2.07E-02	-1.07E+00	-1.22E-02	0.00E+00	0.00E+00	0.00E+00	0.00E+00
	5150000000	2.75E-01	-2.45E-01	-9.88E-01	-1.85E-01	0.00E+00	0.00E+00	0.00E+00	0.00E+00
	5200000000	7.44E-02	-3.50E-01	-8.74E-01	-3.56E-01	0.00E+00	0.00E+00	0.00E+00	0.00E+00
	5250000000	-7.43E-02	-2.33E-01	-7.47E-01	-5.30E-01	0.00E+00	0.00E+00	0.00E+00	0.00E+00
	5300000000	-3.63E-02	-1.46E-01	-6.08E-01	-6.71E-01	0.00E+00	0.00E+00	0.00E+00	0.00E+00
	5350000000	-5.56E-02	-1.87E-01	-4.62E-01	-7.32E-01	0.00E+00	0.00E+00	0.00E+00	0.00E+00
	5400000000	-1.58E-01	-1.09E-01	-2.53E-01	-7.88E-01	0.00E+00	0.00E+00	0.00E+00	0.00E+00
	5450000000	-9.58E-02	7.27E-02	-7.69E-02	-8.39E-01	0.00E+00	0.00E+00	0.00E+00	0.00E+00
	5500000000	1.26E-01	6.28E-02	5.50E-02	-8.03E-01	0.00E+00	0.00E+00	0.00E+00	0.00E+00
	5550000000	1.83E-01	-1.31E-01	2.29E-01	-6.92E-01	0.00E+00	0.00E+00	0.00E+00	0.00E+00
	5600000000	4.64E-02	-2.00E-01	3.89E-01	-5.61E-01	0.00E+00	0.00E+00	0.00E+00	0.00E+00
	5650000000	4.23E-02	-1.39E-01	5.42E-01	-4.15E-01	0.00E+00	0.00E+00	0.00E+00	0.00E+00
	5700000000	8.87E-02	-1.47E-01	6.54E-01	-2.81E-01	0.00E+00	0.00E+00	0.00E+00	0.00E+00
	5750000000	1.22E-01	-2.30E-01	7.07E-01	-1.22E-01	0.00E+00	0.00E+00	0.00E+00	0.00E+00
	5800000000	5.95E-02	-3.24E-01	7.30E-01	4.08E-02	0.00E+00	0.00E+00	0.00E+00	0.00E+00
	5850000000	-5.68E-02	-3.20E-01	7.01E-01	2.10E-01	0.00E+00	0.00E+00	0.00E+00	0.00E+00
	5900000000	-7.70E-02	-2.25E-01	6.61E-01	3.75E-01	0.00E+00	0.00E+00	0.00E+00	0.00E+00
	5950000000	-7.57E-03	-2.38E-01	5.96E-01	4.88E-01	0.00E+00	0.00E+00	0.00E+00	0.00E+00
	6000000000	-1.20E-01	-2.81E-01	7.40E-01	3.29E-02	0.00E+00	0.00E+00	0.00E+00	0.00E+00
