! NanoVNA-App									
! Date: 2024-03-21 13:44:13									
! Start: 1GHz Stop: 6GHz Points: 101									
! S-Parameter data: F S11 S21 S12 S22									
# Hz S RI R 50									
!	Frequency	S11_Real	S11_Imag	S21_Real	S21_Imag	S12_Real	S12_Imag	S22_Real	S22_Imag
	1000000000	1.21E-01	-2.34E-02	-5.56E-01	-8.77E-01	0.00E+00	0.00E+00	0.00E+00	0.00E+00
	1050000000	5.24E-02	-2.22E-02	-3.74E-01	-9.64E-01	0.00E+00	0.00E+00	0.00E+00	0.00E+00
	1100000000	4.99E-02	-1.06E-02	-1.69E-01	-1.02E+00	0.00E+00	0.00E+00	0.00E+00	0.00E+00
	1150000000	3.04E-02	-4.65E-02	3.67E-02	-1.03E+00	0.00E+00	0.00E+00	0.00E+00	0.00E+00
	1200000000	-5.02E-02	-3.66E-02	2.43E-01	-9.89E-01	0.00E+00	0.00E+00	0.00E+00	0.00E+00
	1250000000	-7.79E-02	6.69E-02	4.48E-01	-9.09E-01	0.00E+00	0.00E+00	0.00E+00	0.00E+00
	1300000000	1.55E-02	1.35E-01	6.29E-01	-8.02E-01	0.00E+00	0.00E+00	0.00E+00	0.00E+00
	1350000000	1.01E-01	6.56E-02	7.70E-01	-6.55E-01	0.00E+00	0.00E+00	0.00E+00	0.00E+00
	1400000000	7.33E-02	4.43E-03	9.02E-01	-4.84E-01	0.00E+00	0.00E+00	0.00E+00	0.00E+00
	1450000000	1.72E-02	2.23E-02	9.72E-01	-3.00E-01	0.00E+00	0.00E+00	0.00E+00	0.00E+00
	1500000000	5.26E-02	6.48E-02	1.00E+00	-1.01E-01	0.00E+00	0.00E+00	0.00E+00	0.00E+00
	1550000000	9.63E-02	6.46E-03	9.91E-01	9.97E-02	0.00E+00	0.00E+00	0.00E+00	0.00E+00
	1600000000	1.38E-02	-5.72E-02	9.43E-01	2.91E-01	0.00E+00	0.00E+00	0.00E+00	0.00E+00
	1650000000	-9.29E-02	3.73E-02	8.59E-01	4.63E-01	0.00E+00	0.00E+00	0.00E+00	0.00E+00
	1700000000	-2.44E-02	1.96E-01	7.31E-01	6.04E-01	0.00E+00	0.00E+00	0.00E+00	0.00E+00
	1750000000	1.61E-01	1.97E-01	5.75E-01	7.36E-01	0.00E+00	0.00E+00	0.00E+00	0.00E+00
	1800000000	2.37E-01	4.11E-02	4.23E-01	8.45E-01	0.00E+00	0.00E+00	0.00E+00	0.00E+00
	1850000000	1.52E-01	-7.25E-02	2.69E-01	9.00E-01	0.00E+00	0.00E+00	0.00E+00	0.00E+00
	1900000000	6.40E-02	-5.47E-02	1.23E-01	9.14E-01	0.00E+00	0.00E+00	0.00E+00	0.00E+00
	1950000000	5.39E-02	-2.09E-02	6.06E-03	8.92E-01	0.00E+00	0.00E+00	0.00E+00	0.00E+00
	2000000000	7.60E-02	-2.29E-02	-4.93E-02	8.10E-01	0.00E+00	0.00E+00	0.00E+00	0.00E+00
	2050000000	5.80E-02	-1.94E-01	-3.74E-02	5.67E-01	0.00E+00	0.00E+00	0.00E+00	0.00E+00
	2100000000	-3.96E-01	-4.01E-02	-2.80E-01	2.02E-01	0.00E+00	0.00E+00	0.00E+00	0.00E+00
	2150000000	-1.94E-01	4.69E-01	-4.98E-01	6.55E-02	0.00E+00	0.00E+00	0.00E+00	0.00E+00
	2200000000	2.64E-01	4.83E-01	-6.00E-01	-4.99E-02	0.00E+00	0.00E+00	0.00E+00	0.00E+00
	2250000000	5.13E-01	1.81E-01	-6.37E-01	-1.63E-01	0.00E+00	0.00E+00	0.00E+00	0.00E+00
	2300000000	4.63E-01	-1.63E-01	-6.12E-01	-2.70E-01	0.00E+00	0.00E+00	0.00E+00	0.00E+00
	2350000000	2.14E-01	-3.51E-01	-5.45E-01	-3.79E-01	0.00E+00	0.00E+00	0.00E+00	0.00E+00
	2400000000	-7.59E-02	-3.16E-01	-4.58E-01	-4.73E-01	0.00E+00	0.00E+00	0.00E+00	0.00E+00
	2450000000	-2.41E-01	-8.72E-02	-3.71E-01	-5.34E-01	0.00E+00	0.00E+00	0.00E+00	0.00E+00
	2500000000	-1.30E-01	1.31E-01	-3.04E-01	-5.05E-01	0.00E+00	0.00E+00	0.00E+00	0.00E+00
	2550000000	-1.62E-01	1.38E-01	-3.80E-02	-3.44E-01	0.00E+00	0.00E+00	0.00E+00	0.00E+00
	2600000000	4.17E-02	3.77E-01	2.09E-01	-4.03E-01	0.00E+00	0.00E+00	0.00E+00	0.00E+00
	2650000000	3.39E-01	2.67E-01	3.54E-01	-3.83E-01	0.00E+00	0.00E+00	0.00E+00	0.00E+00
	2700000000	4.12E-01	-1.34E-02	4.77E-01	-3.03E-01	0.00E+00	0.00E+00	0.00E+00	0.00E+00
	2750000000	2.61E-01	-2.22E-01	5.87E-01	-1.95E-01	0.00E+00	0.00E+00	0.00E+00	0.00E+00
	2800000000	4.32E-02	-2.34E-01	6.78E-01	-7.03E-02	0.00E+00	0.00E+00	0.00E+00	0.00E+00
	2850000000	-7.56E-02	-1.01E-01	7.23E-01	4.70E-02	0.00E+00	0.00E+00	0.00E+00	0.00E+00
	2900000000	-5.65E-02	3.59E-02	7.06E-01	1.71E-01	0.00E+00	0.00E+00	0.00E+00	0.00E+00
	2950000000	1.34E-02	8.71E-02	6.33E-01	3.44E-01	0.00E+00	0.00E+00	0.00E+00	0.00E+00
	3000000000	1.10E-01	1.32E-01	5.88E-01	4.97E-01	0.00E+00	0.00E+00	0.00E+00	0.00E+00
	3050000000	2.24E-01	6.36E-02	4.92E-01	6.15E-01	0.00E+00	0.00E+00	0.00E+00	0.00E+00
	3100000000	2.36E-01	-6.91E-02	3.60E-01	7.25E-01	0.00E+00	0.00E+00	0.00E+00	0.00E+00
	3150000000	1.39E-01	-1.50E-01	2.34E-01	8.10E-01	0.00E+00	0.00E+00	0.00E+00	0.00E+00
	3200000000	3.86E-02	-1.15E-01	9.78E-02	8.37E-01	0.00E+00	0.00E+00	0.00E+00	0.00E+00
	3250000000	1.97E-02	-3.29E-02	-6.55E-02	8.27E-01	0.00E+00	0.00E+00	0.00E+00	0.00E+00
	3300000000	5.81E-02	1.40E-02	-2.27E-01	7.92E-01	0.00E+00	0.00E+00	0.00E+00	0.00E+00
	3350000000	9.30E-02	1.89E-02	-3.71E-01	7.30E-01	0.00E+00	0.00E+00	0.00E+00	0.00E+00
	3400000000	9.76E-02	3.02E-02	-4.85E-01	6.48E-01	0.00E+00	0.00E+00	0.00E+00	0.00E+00
	3450000000	1.85E-01	9.55E-02	-5.08E-01	5.09E-01	0.00E+00	0.00E+00	0.00E+00	0.00E+00
	3500000000	2.80E-01	-6.84E-03	-5.71E-01	2.77E-01	0.00E+00	0.00E+00	0.00E+00	0.00E+00
	3550000000	2.69E-01	-1.56E-01	-6.44E-01	3.15E-02	0.00E+00	0.00E+00	0.00E+00	0.00E+00
	3600000000	1.44E-01	-1.99E-01	-7.18E-01	-1.41E-01	0.00E+00	0.00E+00	0.00E+00	0.00E+00
	3650000000	7.25E-02	-1.69E-01	-7.09E-01	-2.99E-01	0.00E+00	0.00E+00	0.00E+00	0.00E+00
	3700000000	2.24E-02	-1.31E-01	-6.55E-01	-4.72E-01	0.00E+00	0.00E+00	0.00E+00	0.00E+00
	3750000000	-1.11E-02	-5.94E-02	-5.86E-01	-6.20E-01	0.00E+00	0.00E+00	0.00E+00	0.00E+00
	3800000000	1.92E-02	2.19E-02	-4.79E-01	-7.19E-01	0.00E+00	0.00E+00	0.00E+00	0.00E+00
	3850000000	8.29E-02	3.79E-02	-3.13E-01	-7.96E-01	0.00E+00	0.00E+00	0.00E+00	0.00E+00
	3900000000	9.80E-02	3.61E-02	-1.38E-01	-8.56E-01	0.00E+00	0.00E+00	0.00E+00	0.00E+00
	3950000000	1.37E-01	8.64E-02	2.75E-02	-8.55E-01	0.00E+00	0.00E+00	0.00E+00	0.00E+00
	4000000000	2.74E-01	8.14E-02	2.35E-01	-8.06E-01	0.00E+00	0.00E+00	0.00E+00	0.00E+00
	4050000000	3.79E-01	-8.23E-02	4.40E-01	-7.57E-01	0.00E+00	0.00E+00	0.00E+00	0.00E+00
	4100000000	3.04E-01	-2.95E-01	5.83E-01	-6.82E-01	0.00E+00	0.00E+00	0.00E+00	0.00E+00
	4150000000	8.70E-02	-3.75E-01	7.14E-01	-5.36E-01	0.00E+00	0.00E+00	0.00E+00	0.00E+00
	4200000000	-9.10E-02	-2.71E-01	8.44E-01	-3.83E-01	0.00E+00	0.00E+00	0.00E+00	0.00E+00
	4250000000	-1.34E-01	-1.36E-01	9.06E-01	-2.42E-01	0.00E+00	0.00E+00	0.00E+00	0.00E+00
	4300000000	-1.51E-01	-3.33E-02	9.08E-01	-5.16E-02	0.00E+00	0.00E+00	0.00E+00	0.00E+00
	4350000000	-1.24E-01	1.39E-01	8.93E-01	1.32E-01	0.00E+00	0.00E+00	0.00E+00	0.00E+00
	4400000000	9.44E-02	2.80E-01	8.17E-01	2.93E-01	0.00E+00	0.00E+00	0.00E+00	0.00E+00
	4450000000	3.80E-01	1.70E-01	6.87E-01	4.68E-01	0.00E+00	0.00E+00	0.00E+00	0.00E+00
	4500000000	4.67E-01	-1.21E-01	5.55E-01	6.29E-01	0.00E+00	0.00E+00	0.00E+00	0.00E+00
	4550000000	3.11E-01	-3.44E-01	3.88E-01	7.37E-01	0.00E+00	0.00E+00	0.00E+00	0.00E+00
	4600000000	1.08E-01	-3.50E-01	1.86E-01	8.28E-01	0.00E+00	0.00E+00	0.00E+00	0.00E+00
	4650000000	3.67E-02	-3.03E-01	-9.55E-03	8.68E-01	0.00E+00	0.00E+00	0.00E+00	0.00E+00
	4700000000	-6.74E-02	-2.43E-01	-2.39E-01	8.81E-01	0.00E+00	0.00E+00	0.00E+00	0.00E+00
	4750000000	-1.10E-01	-1.66E-01	-4.24E-01	8.15E-01	0.00E+00	0.00E+00	0.00E+00	0.00E+00
	4800000000	-1.32E-01	1.25E-03	-6.85E-01	7.33E-01	0.00E+00	0.00E+00	0.00E+00	0.00E+00
	4850000000	5.76E-02	1.34E-01	-9.17E-01	7.13E-01	0.00E+00	0.00E+00	0.00E+00	0.00E+00
	4900000000	2.50E-01	4.35E-03	-1.02E+00	6.76E-01	0.00E+00	0.00E+00	0.00E+00	0.00E+00
	4950000000	1.94E-01	-1.90E-01	-1.04E+00	5.42E-01	0.00E+00	0.00E+00	0.00E+00	0.00E+00
	5000000000	1.92E-02	-1.64E-01	-1.06E+00	3.55E-01	0.00E+00	0.00E+00	0.00E+00	0.00E+00
	5050000000	5.19E-02	1.10E-02	-1.08E+00	6.96E-02	0.00E+00	0.00E+00	0.00E+00	0.00E+00
	5100000000	2.51E-01	-2.09E-02	-1.08E+00	-2.77E-02	0.00E+00	0.00E+00	0.00E+00	0.00E+00
	5150000000	2.69E-01	-2.43E-01	-9.88E-01	-1.95E-01	0.00E+00	0.00E+00	0.00E+00	0.00E+00
	5200000000	7.02E-02	-3.46E-01	-8.70E-01	-3.71E-01	0.00E+00	0.00E+00	0.00E+00	0.00E+00
	5250000000	-7.60E-02	-2.30E-01	-7.44E-01	-5.37E-01	0.00E+00	0.00E+00	0.00E+00	0.00E+00
	5300000000	-3.63E-02	-1.45E-01	-6.03E-01	-6.77E-01	0.00E+00	0.00E+00	0.00E+00	0.00E+00
	5350000000	-5.60E-02	-1.88E-01	-4.52E-01	-7.38E-01	0.00E+00	0.00E+00	0.00E+00	0.00E+00
	5400000000	-1.62E-01	-1.10E-01	-2.41E-01	-7.93E-01	0.00E+00	0.00E+00	0.00E+00	0.00E+00
	5450000000	-9.96E-02	7.40E-02	-6.45E-02	-8.41E-01	0.00E+00	0.00E+00	0.00E+00	0.00E+00
	5500000000	1.25E-01	6.65E-02	6.95E-02	-8.03E-01	0.00E+00	0.00E+00	0.00E+00	0.00E+00
	5550000000	1.83E-01	-1.31E-01	2.37E-01	-6.90E-01	0.00E+00	0.00E+00	0.00E+00	0.00E+00
	5600000000	4.48E-02	-2.03E-01	3.98E-01	-5.58E-01	0.00E+00	0.00E+00	0.00E+00	0.00E+00
	5650000000	3.73E-02	-1.35E-01	5.48E-01	-4.10E-01	0.00E+00	0.00E+00	0.00E+00	0.00E+00
	5700000000	8.83E-02	-1.43E-01	6.57E-01	-2.75E-01	0.00E+00	0.00E+00	0.00E+00	0.00E+00
	5750000000	1.24E-01	-2.30E-01	7.08E-01	-1.13E-01	0.00E+00	0.00E+00	0.00E+00	0.00E+00
	5800000000	5.56E-02	-3.24E-01	7.30E-01	5.24E-02	0.00E+00	0.00E+00	0.00E+00	0.00E+00
	5850000000	-6.22E-02	-3.18E-01	6.99E-01	2.17E-01	0.00E+00	0.00E+00	0.00E+00	0.00E+00
	5900000000	-8.09E-02	-2.22E-01	6.55E-01	3.85E-01	0.00E+00	0.00E+00	0.00E+00	0.00E+00
	5950000000	-1.27E-02	-2.34E-01	5.92E-01	4.95E-01	0.00E+00	0.00E+00	0.00E+00	0.00E+00
	6000000000	-1.24E-01	-2.75E-01	7.41E-01	4.09E-02	0.00E+00	0.00E+00	0.00E+00	0.00E+00
