! NanoVNA-App									
! Date: 2024-03-21 15:04:18									
! Start: 1GHz Stop: 6GHz Points: 101									
! S-Parameter data: F S11 S21 S12 S22									
# Hz S RI R 50									
!	Frequency	S11_Real	S11_Imag	S21_Real	S21_Imag	S12_Real	S12_Imag	S22_Real	S22_Imag
	1000000000	1.21E-01	-2.26E-02	-5.57E-01	-8.76E-01	0.00E+00	0.00E+00	0.00E+00	0.00E+00
	1050000000	5.21E-02	-2.17E-02	-3.77E-01	-9.63E-01	0.00E+00	0.00E+00	0.00E+00	0.00E+00
	1100000000	5.00E-02	-1.09E-02	-1.71E-01	-1.02E+00	0.00E+00	0.00E+00	0.00E+00	0.00E+00
	1150000000	3.01E-02	-4.72E-02	3.52E-02	-1.03E+00	0.00E+00	0.00E+00	0.00E+00	0.00E+00
	1200000000	-5.10E-02	-3.72E-02	2.41E-01	-9.90E-01	0.00E+00	0.00E+00	0.00E+00	0.00E+00
	1250000000	-7.88E-02	6.63E-02	4.46E-01	-9.11E-01	0.00E+00	0.00E+00	0.00E+00	0.00E+00
	1300000000	1.43E-02	1.35E-01	6.28E-01	-8.04E-01	0.00E+00	0.00E+00	0.00E+00	0.00E+00
	1350000000	1.00E-01	6.57E-02	7.71E-01	-6.57E-01	0.00E+00	0.00E+00	0.00E+00	0.00E+00
	1400000000	7.20E-02	5.40E-03	8.99E-01	-4.86E-01	0.00E+00	0.00E+00	0.00E+00	0.00E+00
	1450000000	1.74E-02	2.37E-02	9.74E-01	-3.02E-01	0.00E+00	0.00E+00	0.00E+00	0.00E+00
	1500000000	5.41E-02	6.51E-02	1.00E+00	-1.05E-01	0.00E+00	0.00E+00	0.00E+00	0.00E+00
	1550000000	9.77E-02	5.32E-03	9.92E-01	9.80E-02	0.00E+00	0.00E+00	0.00E+00	0.00E+00
	1600000000	1.41E-02	-5.92E-02	9.45E-01	2.89E-01	0.00E+00	0.00E+00	0.00E+00	0.00E+00
	1650000000	-9.39E-02	3.51E-02	8.62E-01	4.63E-01	0.00E+00	0.00E+00	0.00E+00	0.00E+00
	1700000000	-2.64E-02	1.95E-01	7.34E-01	6.03E-01	0.00E+00	0.00E+00	0.00E+00	0.00E+00
	1750000000	1.58E-01	1.97E-01	5.78E-01	7.37E-01	0.00E+00	0.00E+00	0.00E+00	0.00E+00
	1800000000	2.35E-01	4.25E-02	4.27E-01	8.46E-01	0.00E+00	0.00E+00	0.00E+00	0.00E+00
	1850000000	1.52E-01	-6.98E-02	2.72E-01	9.02E-01	0.00E+00	0.00E+00	0.00E+00	0.00E+00
	1900000000	6.65E-02	-5.32E-02	1.25E-01	9.18E-01	0.00E+00	0.00E+00	0.00E+00	0.00E+00
	1950000000	5.67E-02	-2.15E-02	1.13E-02	8.94E-01	0.00E+00	0.00E+00	0.00E+00	0.00E+00
	2000000000	7.76E-02	-2.44E-02	-4.76E-02	8.13E-01	0.00E+00	0.00E+00	0.00E+00	0.00E+00
	2050000000	5.85E-02	-1.97E-01	-3.44E-02	5.67E-01	0.00E+00	0.00E+00	0.00E+00	0.00E+00
	2100000000	-4.01E-01	-4.55E-02	-2.80E-01	2.06E-01	0.00E+00	0.00E+00	0.00E+00	0.00E+00
	2150000000	-1.99E-01	4.67E-01	-5.01E-01	6.85E-02	0.00E+00	0.00E+00	0.00E+00	0.00E+00
	2200000000	2.59E-01	4.86E-01	-6.04E-01	-4.81E-02	0.00E+00	0.00E+00	0.00E+00	0.00E+00
	2250000000	5.11E-01	1.86E-01	-6.43E-01	-1.59E-01	0.00E+00	0.00E+00	0.00E+00	0.00E+00
	2300000000	4.66E-01	-1.57E-01	-6.19E-01	-2.67E-01	0.00E+00	0.00E+00	0.00E+00	0.00E+00
	2350000000	2.20E-01	-3.48E-01	-5.53E-01	-3.76E-01	0.00E+00	0.00E+00	0.00E+00	0.00E+00
	2400000000	-6.85E-02	-3.23E-01	-4.70E-01	-4.71E-01	0.00E+00	0.00E+00	0.00E+00	0.00E+00
	2450000000	-2.41E-01	-9.76E-02	-3.81E-01	-5.32E-01	0.00E+00	0.00E+00	0.00E+00	0.00E+00
	2500000000	-1.41E-01	1.24E-01	-3.14E-01	-5.04E-01	0.00E+00	0.00E+00	0.00E+00	0.00E+00
	2550000000	-1.73E-01	1.40E-01	-5.18E-02	-3.46E-01	0.00E+00	0.00E+00	0.00E+00	0.00E+00
	2600000000	3.74E-02	3.86E-01	1.97E-01	-4.04E-01	0.00E+00	0.00E+00	0.00E+00	0.00E+00
	2650000000	3.44E-01	2.76E-01	3.40E-01	-3.85E-01	0.00E+00	0.00E+00	0.00E+00	0.00E+00
	2700000000	4.21E-01	-1.47E-02	4.65E-01	-3.11E-01	0.00E+00	0.00E+00	0.00E+00	0.00E+00
	2750000000	2.68E-01	-2.27E-01	5.75E-01	-2.01E-01	0.00E+00	0.00E+00	0.00E+00	0.00E+00
	2800000000	4.44E-02	-2.38E-01	6.61E-01	-7.66E-02	0.00E+00	0.00E+00	0.00E+00	0.00E+00
	2850000000	-8.38E-02	-1.08E-01	7.13E-01	3.94E-02	0.00E+00	0.00E+00	0.00E+00	0.00E+00
	2900000000	-6.66E-02	3.83E-02	6.98E-01	1.64E-01	0.00E+00	0.00E+00	0.00E+00	0.00E+00
	2950000000	1.04E-02	9.42E-02	6.24E-01	3.37E-01	0.00E+00	0.00E+00	0.00E+00	0.00E+00
	3000000000	1.14E-01	1.38E-01	5.83E-01	4.89E-01	0.00E+00	0.00E+00	0.00E+00	0.00E+00
	3050000000	2.29E-01	6.40E-02	4.90E-01	6.06E-01	0.00E+00	0.00E+00	0.00E+00	0.00E+00
	3100000000	2.39E-01	-7.22E-02	3.60E-01	7.17E-01	0.00E+00	0.00E+00	0.00E+00	0.00E+00
	3150000000	1.40E-01	-1.53E-01	2.35E-01	8.03E-01	0.00E+00	0.00E+00	0.00E+00	0.00E+00
	3200000000	3.75E-02	-1.18E-01	9.84E-02	8.31E-01	0.00E+00	0.00E+00	0.00E+00	0.00E+00
	3250000000	1.71E-02	-3.39E-02	-6.25E-02	8.20E-01	0.00E+00	0.00E+00	0.00E+00	0.00E+00
	3300000000	5.70E-02	1.45E-02	-2.22E-01	7.90E-01	0.00E+00	0.00E+00	0.00E+00	0.00E+00
	3350000000	9.37E-02	1.90E-02	-3.64E-01	7.27E-01	0.00E+00	0.00E+00	0.00E+00	0.00E+00
	3400000000	9.73E-02	3.05E-02	-4.78E-01	6.47E-01	0.00E+00	0.00E+00	0.00E+00	0.00E+00
	3450000000	1.86E-01	9.62E-02	-5.04E-01	5.06E-01	0.00E+00	0.00E+00	0.00E+00	0.00E+00
	3500000000	2.81E-01	-7.48E-03	-5.65E-01	2.79E-01	0.00E+00	0.00E+00	0.00E+00	0.00E+00
	3550000000	2.70E-01	-1.56E-01	-6.38E-01	3.02E-02	0.00E+00	0.00E+00	0.00E+00	0.00E+00
	3600000000	1.45E-01	-1.99E-01	-7.12E-01	-1.42E-01	0.00E+00	0.00E+00	0.00E+00	0.00E+00
	3650000000	7.33E-02	-1.68E-01	-7.06E-01	-2.99E-01	0.00E+00	0.00E+00	0.00E+00	0.00E+00
	3700000000	2.39E-02	-1.31E-01	-6.55E-01	-4.69E-01	0.00E+00	0.00E+00	0.00E+00	0.00E+00
	3750000000	-1.06E-02	-6.12E-02	-5.85E-01	-6.20E-01	0.00E+00	0.00E+00	0.00E+00	0.00E+00
	3800000000	1.84E-02	2.05E-02	-4.78E-01	-7.20E-01	0.00E+00	0.00E+00	0.00E+00	0.00E+00
	3850000000	7.95E-02	3.85E-02	-3.14E-01	-7.94E-01	0.00E+00	0.00E+00	0.00E+00	0.00E+00
	3900000000	9.59E-02	3.97E-02	-1.42E-01	-8.54E-01	0.00E+00	0.00E+00	0.00E+00	0.00E+00
	3950000000	1.39E-01	9.12E-02	2.49E-02	-8.53E-01	0.00E+00	0.00E+00	0.00E+00	0.00E+00
	4000000000	2.79E-01	8.24E-02	2.29E-01	-8.05E-01	0.00E+00	0.00E+00	0.00E+00	0.00E+00
	4050000000	3.83E-01	-8.43E-02	4.35E-01	-7.57E-01	0.00E+00	0.00E+00	0.00E+00	0.00E+00
	4100000000	3.05E-01	-2.98E-01	5.80E-01	-6.82E-01	0.00E+00	0.00E+00	0.00E+00	0.00E+00
	4150000000	8.44E-02	-3.78E-01	7.09E-01	-5.38E-01	0.00E+00	0.00E+00	0.00E+00	0.00E+00
	4200000000	-9.48E-02	-2.72E-01	8.41E-01	-3.83E-01	0.00E+00	0.00E+00	0.00E+00	0.00E+00
	4250000000	-1.37E-01	-1.33E-01	9.04E-01	-2.43E-01	0.00E+00	0.00E+00	0.00E+00	0.00E+00
	4300000000	-1.51E-01	-2.92E-02	9.06E-01	-5.69E-02	0.00E+00	0.00E+00	0.00E+00	0.00E+00
	4350000000	-1.21E-01	1.41E-01	8.92E-01	1.26E-01	0.00E+00	0.00E+00	0.00E+00	0.00E+00
	4400000000	9.70E-02	2.79E-01	8.15E-01	2.91E-01	0.00E+00	0.00E+00	0.00E+00	0.00E+00
	4450000000	3.81E-01	1.69E-01	6.88E-01	4.65E-01	0.00E+00	0.00E+00	0.00E+00	0.00E+00
	4500000000	4.68E-01	-1.24E-01	5.56E-01	6.28E-01	0.00E+00	0.00E+00	0.00E+00	0.00E+00
	4550000000	3.10E-01	-3.48E-01	3.91E-01	7.35E-01	0.00E+00	0.00E+00	0.00E+00	0.00E+00
	4600000000	1.03E-01	-3.52E-01	1.84E-01	8.29E-01	0.00E+00	0.00E+00	0.00E+00	0.00E+00
	4650000000	3.46E-02	-2.99E-01	-2.97E-03	8.69E-01	0.00E+00	0.00E+00	0.00E+00	0.00E+00
	4700000000	-6.61E-02	-2.41E-01	-2.35E-01	8.81E-01	0.00E+00	0.00E+00	0.00E+00	0.00E+00
	4750000000	-1.07E-01	-1.67E-01	-4.22E-01	8.17E-01	0.00E+00	0.00E+00	0.00E+00	0.00E+00
	4800000000	-1.29E-01	-3.70E-04	-6.81E-01	7.37E-01	0.00E+00	0.00E+00	0.00E+00	0.00E+00
	4850000000	5.95E-02	1.32E-01	-9.12E-01	7.20E-01	0.00E+00	0.00E+00	0.00E+00	0.00E+00
	4900000000	2.52E-01	1.14E-03	-1.02E+00	6.79E-01	0.00E+00	0.00E+00	0.00E+00	0.00E+00
	4950000000	1.94E-01	-1.93E-01	-1.04E+00	5.49E-01	0.00E+00	0.00E+00	0.00E+00	0.00E+00
	5000000000	1.52E-02	-1.63E-01	-1.06E+00	3.63E-01	0.00E+00	0.00E+00	0.00E+00	0.00E+00
	5050000000	5.06E-02	1.38E-02	-1.08E+00	8.08E-02	0.00E+00	0.00E+00	0.00E+00	0.00E+00
	5100000000	2.53E-01	-1.81E-02	-1.08E+00	-1.63E-02	0.00E+00	0.00E+00	0.00E+00	0.00E+00
	5150000000	2.74E-01	-2.42E-01	-9.89E-01	-1.89E-01	0.00E+00	0.00E+00	0.00E+00	0.00E+00
	5200000000	7.43E-02	-3.48E-01	-8.73E-01	-3.61E-01	0.00E+00	0.00E+00	0.00E+00	0.00E+00
	5250000000	-7.32E-02	-2.35E-01	-7.47E-01	-5.33E-01	0.00E+00	0.00E+00	0.00E+00	0.00E+00
	5300000000	-3.64E-02	-1.48E-01	-6.07E-01	-6.73E-01	0.00E+00	0.00E+00	0.00E+00	0.00E+00
	5350000000	-5.67E-02	-1.89E-01	-4.59E-01	-7.35E-01	0.00E+00	0.00E+00	0.00E+00	0.00E+00
	5400000000	-1.62E-01	-1.10E-01	-2.49E-01	-7.90E-01	0.00E+00	0.00E+00	0.00E+00	0.00E+00
	5450000000	-9.89E-02	7.56E-02	-7.48E-02	-8.40E-01	0.00E+00	0.00E+00	0.00E+00	0.00E+00
	5500000000	1.26E-01	6.69E-02	5.95E-02	-8.03E-01	0.00E+00	0.00E+00	0.00E+00	0.00E+00
	5550000000	1.86E-01	-1.30E-01	2.32E-01	-6.92E-01	0.00E+00	0.00E+00	0.00E+00	0.00E+00
	5600000000	4.71E-02	-2.04E-01	3.95E-01	-5.59E-01	0.00E+00	0.00E+00	0.00E+00	0.00E+00
	5650000000	3.85E-02	-1.38E-01	5.43E-01	-4.17E-01	0.00E+00	0.00E+00	0.00E+00	0.00E+00
	5700000000	8.90E-02	-1.46E-01	6.54E-01	-2.80E-01	0.00E+00	0.00E+00	0.00E+00	0.00E+00
	5750000000	1.24E-01	-2.32E-01	7.06E-01	-1.19E-01	0.00E+00	0.00E+00	0.00E+00	0.00E+00
	5800000000	5.38E-02	-3.25E-01	7.30E-01	4.64E-02	0.00E+00	0.00E+00	0.00E+00	0.00E+00
	5850000000	-6.29E-02	-3.17E-01	7.01E-01	2.09E-01	0.00E+00	0.00E+00	0.00E+00	0.00E+00
	5900000000	-8.00E-02	-2.21E-01	6.60E-01	3.74E-01	0.00E+00	0.00E+00	0.00E+00	0.00E+00
	5950000000	-6.48E-03	-2.36E-01	5.95E-01	4.89E-01	0.00E+00	0.00E+00	0.00E+00	0.00E+00
	6000000000	-1.20E-01	-2.79E-01	7.40E-01	3.33E-02	0.00E+00	0.00E+00	0.00E+00	0.00E+00
