! NanoVNA-App									
! Date: 2024-03-21 18:38:38									
! Start: 1GHz Stop: 6GHz Points: 101									
! S-Parameter data: F S11 S21 S12 S22									
# Hz S RI R 50									
!	Frequency	S11_Real	S11_Imag	S21_Real	S21_Imag	S12_Real	S12_Imag	S22_Real	S22_Imag
	1000000000	1.20E-01	-2.22E-02	-5.59E-01	-8.75E-01	0.00E+00	0.00E+00	0.00E+00	0.00E+00
	1050000000	5.19E-02	-2.15E-02	-3.78E-01	-9.63E-01	0.00E+00	0.00E+00	0.00E+00	0.00E+00
	1100000000	4.97E-02	-1.15E-02	-1.72E-01	-1.02E+00	0.00E+00	0.00E+00	0.00E+00	0.00E+00
	1150000000	2.88E-02	-4.79E-02	3.36E-02	-1.03E+00	0.00E+00	0.00E+00	0.00E+00	0.00E+00
	1200000000	-5.26E-02	-3.70E-02	2.40E-01	-9.90E-01	0.00E+00	0.00E+00	0.00E+00	0.00E+00
	1250000000	-7.97E-02	6.68E-02	4.44E-01	-9.12E-01	0.00E+00	0.00E+00	0.00E+00	0.00E+00
	1300000000	1.36E-02	1.35E-01	6.27E-01	-8.04E-01	0.00E+00	0.00E+00	0.00E+00	0.00E+00
	1350000000	9.90E-02	6.62E-02	7.69E-01	-6.59E-01	0.00E+00	0.00E+00	0.00E+00	0.00E+00
	1400000000	7.11E-02	5.28E-03	8.99E-01	-4.87E-01	0.00E+00	0.00E+00	0.00E+00	0.00E+00
	1450000000	1.72E-02	2.38E-02	9.72E-01	-3.05E-01	0.00E+00	0.00E+00	0.00E+00	0.00E+00
	1500000000	5.38E-02	6.45E-02	1.00E+00	-1.07E-01	0.00E+00	0.00E+00	0.00E+00	0.00E+00
	1550000000	9.71E-02	4.55E-03	9.92E-01	9.70E-02	0.00E+00	0.00E+00	0.00E+00	0.00E+00
	1600000000	1.36E-02	-5.98E-02	9.45E-01	2.90E-01	0.00E+00	0.00E+00	0.00E+00	0.00E+00
	1650000000	-9.39E-02	3.43E-02	8.60E-01	4.59E-01	0.00E+00	0.00E+00	0.00E+00	0.00E+00
	1700000000	-2.72E-02	1.93E-01	7.34E-01	6.03E-01	0.00E+00	0.00E+00	0.00E+00	0.00E+00
	1750000000	1.56E-01	1.96E-01	5.78E-01	7.37E-01	0.00E+00	0.00E+00	0.00E+00	0.00E+00
	1800000000	2.33E-01	4.30E-02	4.28E-01	8.46E-01	0.00E+00	0.00E+00	0.00E+00	0.00E+00
	1850000000	1.51E-01	-6.76E-02	2.74E-01	9.01E-01	0.00E+00	0.00E+00	0.00E+00	0.00E+00
	1900000000	6.77E-02	-5.03E-02	1.29E-01	9.18E-01	0.00E+00	0.00E+00	0.00E+00	0.00E+00
	1950000000	6.08E-02	-2.04E-02	1.42E-02	8.94E-01	0.00E+00	0.00E+00	0.00E+00	0.00E+00
	2000000000	8.35E-02	-2.86E-02	-4.20E-02	8.12E-01	0.00E+00	0.00E+00	0.00E+00	0.00E+00
	2050000000	5.33E-02	-2.08E-01	-3.82E-02	5.53E-01	0.00E+00	0.00E+00	0.00E+00	0.00E+00
	2100000000	-4.06E-01	-3.65E-02	-2.92E-01	2.05E-01	0.00E+00	0.00E+00	0.00E+00	0.00E+00
	2150000000	-1.96E-01	4.67E-01	-5.08E-01	7.17E-02	0.00E+00	0.00E+00	0.00E+00	0.00E+00
	2200000000	2.57E-01	4.84E-01	-6.09E-01	-4.71E-02	0.00E+00	0.00E+00	0.00E+00	0.00E+00
	2250000000	5.09E-01	1.86E-01	-6.48E-01	-1.58E-01	0.00E+00	0.00E+00	0.00E+00	0.00E+00
	2300000000	4.65E-01	-1.54E-01	-6.25E-01	-2.66E-01	0.00E+00	0.00E+00	0.00E+00	0.00E+00
	2350000000	2.23E-01	-3.43E-01	-5.57E-01	-3.77E-01	0.00E+00	0.00E+00	0.00E+00	0.00E+00
	2400000000	-6.29E-02	-3.24E-01	-4.76E-01	-4.72E-01	0.00E+00	0.00E+00	0.00E+00	0.00E+00
	2450000000	-2.38E-01	-1.03E-01	-3.88E-01	-5.34E-01	0.00E+00	0.00E+00	0.00E+00	0.00E+00
	2500000000	-1.41E-01	1.17E-01	-3.22E-01	-5.04E-01	0.00E+00	0.00E+00	0.00E+00	0.00E+00
	2550000000	-1.86E-01	1.44E-01	-4.62E-02	-3.48E-01	0.00E+00	0.00E+00	0.00E+00	0.00E+00
	2600000000	3.65E-02	3.91E-01	1.94E-01	-4.14E-01	0.00E+00	0.00E+00	0.00E+00	0.00E+00
	2650000000	3.46E-01	2.80E-01	3.37E-01	-3.96E-01	0.00E+00	0.00E+00	0.00E+00	0.00E+00
	2700000000	4.26E-01	-8.38E-03	4.63E-01	-3.15E-01	0.00E+00	0.00E+00	0.00E+00	0.00E+00
	2750000000	2.71E-01	-2.28E-01	5.72E-01	-2.11E-01	0.00E+00	0.00E+00	0.00E+00	0.00E+00
	2800000000	4.70E-02	-2.48E-01	6.65E-01	-8.59E-02	0.00E+00	0.00E+00	0.00E+00	0.00E+00
	2850000000	-8.43E-02	-1.13E-01	7.12E-01	3.19E-02	0.00E+00	0.00E+00	0.00E+00	0.00E+00
	2900000000	-7.07E-02	3.60E-02	6.98E-01	1.54E-01	0.00E+00	0.00E+00	0.00E+00	0.00E+00
	2950000000	5.67E-03	9.63E-02	6.28E-01	3.27E-01	0.00E+00	0.00E+00	0.00E+00	0.00E+00
	3000000000	1.14E-01	1.41E-01	5.87E-01	4.84E-01	0.00E+00	0.00E+00	0.00E+00	0.00E+00
	3050000000	2.31E-01	6.61E-02	4.92E-01	6.01E-01	0.00E+00	0.00E+00	0.00E+00	0.00E+00
	3100000000	2.41E-01	-7.12E-02	3.66E-01	7.11E-01	0.00E+00	0.00E+00	0.00E+00	0.00E+00
	3150000000	1.42E-01	-1.53E-01	2.43E-01	7.97E-01	0.00E+00	0.00E+00	0.00E+00	0.00E+00
	3200000000	3.90E-02	-1.20E-01	1.07E-01	8.26E-01	0.00E+00	0.00E+00	0.00E+00	0.00E+00
	3250000000	1.71E-02	-3.63E-02	-5.33E-02	8.18E-01	0.00E+00	0.00E+00	0.00E+00	0.00E+00
	3300000000	5.45E-02	1.33E-02	-2.13E-01	7.87E-01	0.00E+00	0.00E+00	0.00E+00	0.00E+00
	3350000000	9.17E-02	2.08E-02	-3.57E-01	7.25E-01	0.00E+00	0.00E+00	0.00E+00	0.00E+00
	3400000000	9.70E-02	3.25E-02	-4.70E-01	6.47E-01	0.00E+00	0.00E+00	0.00E+00	0.00E+00
	3450000000	1.89E-01	9.65E-02	-4.97E-01	5.07E-01	0.00E+00	0.00E+00	0.00E+00	0.00E+00
	3500000000	2.80E-01	-6.46E-03	-5.61E-01	2.83E-01	0.00E+00	0.00E+00	0.00E+00	0.00E+00
	3550000000	2.72E-01	-1.51E-01	-6.34E-01	3.94E-02	0.00E+00	0.00E+00	0.00E+00	0.00E+00
	3600000000	1.51E-01	-2.00E-01	-7.06E-01	-1.33E-01	0.00E+00	0.00E+00	0.00E+00	0.00E+00
	3650000000	7.53E-02	-1.74E-01	-7.00E-01	-2.89E-01	0.00E+00	0.00E+00	0.00E+00	0.00E+00
	3700000000	1.98E-02	-1.35E-01	-6.50E-01	-4.60E-01	0.00E+00	0.00E+00	0.00E+00	0.00E+00
	3750000000	-1.62E-02	-6.00E-02	-5.82E-01	-6.11E-01	0.00E+00	0.00E+00	0.00E+00	0.00E+00
	3800000000	1.59E-02	2.52E-02	-4.76E-01	-7.11E-01	0.00E+00	0.00E+00	0.00E+00	0.00E+00
	3850000000	8.23E-02	4.41E-02	-3.16E-01	-7.85E-01	0.00E+00	0.00E+00	0.00E+00	0.00E+00
	3900000000	1.01E-01	4.17E-02	-1.39E-01	-8.47E-01	0.00E+00	0.00E+00	0.00E+00	0.00E+00
	3950000000	1.43E-01	8.77E-02	2.50E-02	-8.47E-01	0.00E+00	0.00E+00	0.00E+00	0.00E+00
	4000000000	2.78E-01	7.80E-02	2.32E-01	-8.00E-01	0.00E+00	0.00E+00	0.00E+00	0.00E+00
	4050000000	3.79E-01	-8.66E-02	4.36E-01	-7.53E-01	0.00E+00	0.00E+00	0.00E+00	0.00E+00
	4100000000	3.01E-01	-2.98E-01	5.79E-01	-6.81E-01	0.00E+00	0.00E+00	0.00E+00	0.00E+00
	4150000000	8.28E-02	-3.75E-01	7.10E-01	-5.35E-01	0.00E+00	0.00E+00	0.00E+00	0.00E+00
	4200000000	-9.39E-02	-2.70E-01	8.42E-01	-3.82E-01	0.00E+00	0.00E+00	0.00E+00	0.00E+00
	4250000000	-1.35E-01	-1.33E-01	9.05E-01	-2.41E-01	0.00E+00	0.00E+00	0.00E+00	0.00E+00
	4300000000	-1.48E-01	-3.10E-02	9.06E-01	-5.99E-02	0.00E+00	0.00E+00	0.00E+00	0.00E+00
	4350000000	-1.20E-01	1.38E-01	8.92E-01	1.24E-01	0.00E+00	0.00E+00	0.00E+00	0.00E+00
	4400000000	9.55E-02	2.77E-01	8.16E-01	2.89E-01	0.00E+00	0.00E+00	0.00E+00	0.00E+00
	4450000000	3.79E-01	1.68E-01	6.89E-01	4.64E-01	0.00E+00	0.00E+00	0.00E+00	0.00E+00
	4500000000	4.66E-01	-1.24E-01	5.56E-01	6.25E-01	0.00E+00	0.00E+00	0.00E+00	0.00E+00
	4550000000	3.09E-01	-3.47E-01	3.90E-01	7.36E-01	0.00E+00	0.00E+00	0.00E+00	0.00E+00
	4600000000	1.03E-01	-3.50E-01	1.91E-01	8.28E-01	0.00E+00	0.00E+00	0.00E+00	0.00E+00
	4650000000	3.75E-02	-3.00E-01	-3.23E-03	8.68E-01	0.00E+00	0.00E+00	0.00E+00	0.00E+00
	4700000000	-6.34E-02	-2.41E-01	-2.31E-01	8.83E-01	0.00E+00	0.00E+00	0.00E+00	0.00E+00
	4750000000	-1.06E-01	-1.68E-01	-4.14E-01	8.20E-01	0.00E+00	0.00E+00	0.00E+00	0.00E+00
	4800000000	-1.28E-01	-3.68E-03	-6.76E-01	7.37E-01	0.00E+00	0.00E+00	0.00E+00	0.00E+00
	4850000000	5.90E-02	1.29E-01	-9.09E-01	7.22E-01	0.00E+00	0.00E+00	0.00E+00	0.00E+00
	4900000000	2.50E-01	-1.16E-03	-1.02E+00	6.85E-01	0.00E+00	0.00E+00	0.00E+00	0.00E+00
	4950000000	1.91E-01	-1.93E-01	-1.03E+00	5.55E-01	0.00E+00	0.00E+00	0.00E+00	0.00E+00
	5000000000	1.53E-02	-1.61E-01	-1.05E+00	3.70E-01	0.00E+00	0.00E+00	0.00E+00	0.00E+00
	5050000000	5.34E-02	1.55E-02	-1.08E+00	8.83E-02	0.00E+00	0.00E+00	0.00E+00	0.00E+00
	5100000000	2.58E-01	-1.95E-02	-1.07E+00	-9.92E-03	0.00E+00	0.00E+00	0.00E+00	0.00E+00
	5150000000	2.76E-01	-2.45E-01	-9.86E-01	-1.80E-01	0.00E+00	0.00E+00	0.00E+00	0.00E+00
	5200000000	7.44E-02	-3.50E-01	-8.73E-01	-3.53E-01	0.00E+00	0.00E+00	0.00E+00	0.00E+00
	5250000000	-7.14E-02	-2.38E-01	-7.48E-01	-5.29E-01	0.00E+00	0.00E+00	0.00E+00	0.00E+00
	5300000000	-3.61E-02	-1.50E-01	-6.11E-01	-6.65E-01	0.00E+00	0.00E+00	0.00E+00	0.00E+00
	5350000000	-5.75E-02	-1.88E-01	-4.62E-01	-7.29E-01	0.00E+00	0.00E+00	0.00E+00	0.00E+00
	5400000000	-1.61E-01	-1.10E-01	-2.51E-01	-7.88E-01	0.00E+00	0.00E+00	0.00E+00	0.00E+00
	5450000000	-9.50E-02	7.49E-02	-7.83E-02	-8.38E-01	0.00E+00	0.00E+00	0.00E+00	0.00E+00
	5500000000	1.30E-01	6.44E-02	5.60E-02	-8.01E-01	0.00E+00	0.00E+00	0.00E+00	0.00E+00
	5550000000	1.85E-01	-1.34E-01	2.23E-01	-6.92E-01	0.00E+00	0.00E+00	0.00E+00	0.00E+00
	5600000000	4.83E-02	-2.02E-01	3.85E-01	-5.61E-01	0.00E+00	0.00E+00	0.00E+00	0.00E+00
	5650000000	4.32E-02	-1.40E-01	5.40E-01	-4.16E-01	0.00E+00	0.00E+00	0.00E+00	0.00E+00
	5700000000	8.97E-02	-1.48E-01	6.51E-01	-2.81E-01	0.00E+00	0.00E+00	0.00E+00	0.00E+00
	5750000000	1.24E-01	-2.32E-01	7.04E-01	-1.25E-01	0.00E+00	0.00E+00	0.00E+00	0.00E+00
	5800000000	5.99E-02	-3.23E-01	7.28E-01	4.49E-02	0.00E+00	0.00E+00	0.00E+00	0.00E+00
	5850000000	-6.00E-02	-3.17E-01	7.00E-01	2.07E-01	0.00E+00	0.00E+00	0.00E+00	0.00E+00
	5900000000	-7.39E-02	-2.23E-01	6.59E-01	3.74E-01	0.00E+00	0.00E+00	0.00E+00	0.00E+00
	5950000000	-3.35E-03	-2.39E-01	5.97E-01	4.81E-01	0.00E+00	0.00E+00	0.00E+00	0.00E+00
	6000000000	-1.18E-01	-2.81E-01	7.38E-01	3.08E-02	0.00E+00	0.00E+00	0.00E+00	0.00E+00
