! NanoVNA-App									
! Date: 2024-03-21 15:58:34									
! Start: 1GHz Stop: 6GHz Points: 101									
! S-Parameter data: F S11 S21 S12 S22									
# Hz S RI R 50									
!	Frequency	S11_Real	S11_Imag	S21_Real	S21_Imag	S12_Real	S12_Imag	S22_Real	S22_Imag
	1000000000	1.20E-01	-2.28E-02	-5.59E-01	-8.75E-01	0.00E+00	0.00E+00	0.00E+00	0.00E+00
	1050000000	5.19E-02	-2.16E-02	-3.77E-01	-9.63E-01	0.00E+00	0.00E+00	0.00E+00	0.00E+00
	1100000000	4.97E-02	-1.11E-02	-1.73E-01	-1.02E+00	0.00E+00	0.00E+00	0.00E+00	0.00E+00
	1150000000	2.92E-02	-4.73E-02	3.39E-02	-1.03E+00	0.00E+00	0.00E+00	0.00E+00	0.00E+00
	1200000000	-5.19E-02	-3.67E-02	2.40E-01	-9.90E-01	0.00E+00	0.00E+00	0.00E+00	0.00E+00
	1250000000	-7.92E-02	6.71E-02	4.45E-01	-9.11E-01	0.00E+00	0.00E+00	0.00E+00	0.00E+00
	1300000000	1.44E-02	1.35E-01	6.27E-01	-8.04E-01	0.00E+00	0.00E+00	0.00E+00	0.00E+00
	1350000000	9.98E-02	6.60E-02	7.69E-01	-6.57E-01	0.00E+00	0.00E+00	0.00E+00	0.00E+00
	1400000000	7.21E-02	4.85E-03	8.97E-01	-4.87E-01	0.00E+00	0.00E+00	0.00E+00	0.00E+00
	1450000000	1.76E-02	2.29E-02	9.72E-01	-3.04E-01	0.00E+00	0.00E+00	0.00E+00	0.00E+00
	1500000000	5.35E-02	6.38E-02	1.00E+00	-1.07E-01	0.00E+00	0.00E+00	0.00E+00	0.00E+00
	1550000000	9.60E-02	4.60E-03	9.91E-01	9.65E-02	0.00E+00	0.00E+00	0.00E+00	0.00E+00
	1600000000	1.25E-02	-5.86E-02	9.46E-01	2.86E-01	0.00E+00	0.00E+00	0.00E+00	0.00E+00
	1650000000	-9.40E-02	3.64E-02	8.62E-01	4.59E-01	0.00E+00	0.00E+00	0.00E+00	0.00E+00
	1700000000	-2.56E-02	1.95E-01	7.33E-01	6.02E-01	0.00E+00	0.00E+00	0.00E+00	0.00E+00
	1750000000	1.59E-01	1.96E-01	5.78E-01	7.35E-01	0.00E+00	0.00E+00	0.00E+00	0.00E+00
	1800000000	2.35E-01	4.19E-02	4.27E-01	8.44E-01	0.00E+00	0.00E+00	0.00E+00	0.00E+00
	1850000000	1.51E-01	-7.07E-02	2.73E-01	9.00E-01	0.00E+00	0.00E+00	0.00E+00	0.00E+00
	1900000000	6.53E-02	-5.34E-02	1.29E-01	9.15E-01	0.00E+00	0.00E+00	0.00E+00	0.00E+00
	1950000000	5.60E-02	-2.05E-02	1.22E-02	8.93E-01	0.00E+00	0.00E+00	0.00E+00	0.00E+00
	2000000000	7.97E-02	-2.41E-02	-4.28E-02	8.10E-01	0.00E+00	0.00E+00	0.00E+00	0.00E+00
	2050000000	5.70E-02	-2.02E-01	-3.58E-02	5.55E-01	0.00E+00	0.00E+00	0.00E+00	0.00E+00
	2100000000	-3.99E-01	-3.60E-02	-2.89E-01	2.01E-01	0.00E+00	0.00E+00	0.00E+00	0.00E+00
	2150000000	-1.94E-01	4.68E-01	-5.04E-01	6.93E-02	0.00E+00	0.00E+00	0.00E+00	0.00E+00
	2200000000	2.63E-01	4.83E-01	-6.07E-01	-4.68E-02	0.00E+00	0.00E+00	0.00E+00	0.00E+00
	2250000000	5.11E-01	1.83E-01	-6.44E-01	-1.58E-01	0.00E+00	0.00E+00	0.00E+00	0.00E+00
	2300000000	4.63E-01	-1.60E-01	-6.19E-01	-2.66E-01	0.00E+00	0.00E+00	0.00E+00	0.00E+00
	2350000000	2.17E-01	-3.46E-01	-5.50E-01	-3.76E-01	0.00E+00	0.00E+00	0.00E+00	0.00E+00
	2400000000	-7.15E-02	-3.18E-01	-4.67E-01	-4.70E-01	0.00E+00	0.00E+00	0.00E+00	0.00E+00
	2450000000	-2.40E-01	-9.28E-02	-3.80E-01	-5.32E-01	0.00E+00	0.00E+00	0.00E+00	0.00E+00
	2500000000	-1.35E-01	1.25E-01	-3.13E-01	-5.01E-01	0.00E+00	0.00E+00	0.00E+00	0.00E+00
	2550000000	-1.72E-01	1.39E-01	-4.26E-02	-3.44E-01	0.00E+00	0.00E+00	0.00E+00	0.00E+00
	2600000000	3.98E-02	3.83E-01	2.03E-01	-4.07E-01	0.00E+00	0.00E+00	0.00E+00	0.00E+00
	2650000000	3.42E-01	2.71E-01	3.46E-01	-3.89E-01	0.00E+00	0.00E+00	0.00E+00	0.00E+00
	2700000000	4.16E-01	-1.59E-02	4.70E-01	-3.13E-01	0.00E+00	0.00E+00	0.00E+00	0.00E+00
	2750000000	2.64E-01	-2.24E-01	5.81E-01	-2.02E-01	0.00E+00	0.00E+00	0.00E+00	0.00E+00
	2800000000	4.26E-02	-2.39E-01	6.74E-01	-8.21E-02	0.00E+00	0.00E+00	0.00E+00	0.00E+00
	2850000000	-7.78E-02	-1.06E-01	7.19E-01	4.07E-02	0.00E+00	0.00E+00	0.00E+00	0.00E+00
	2900000000	-6.18E-02	3.46E-02	7.04E-01	1.61E-01	0.00E+00	0.00E+00	0.00E+00	0.00E+00
	2950000000	8.85E-03	8.85E-02	6.29E-01	3.34E-01	0.00E+00	0.00E+00	0.00E+00	0.00E+00
	3000000000	1.10E-01	1.35E-01	5.91E-01	4.89E-01	0.00E+00	0.00E+00	0.00E+00	0.00E+00
	3050000000	2.25E-01	6.54E-02	4.97E-01	6.06E-01	0.00E+00	0.00E+00	0.00E+00	0.00E+00
	3100000000	2.37E-01	-6.85E-02	3.67E-01	7.18E-01	0.00E+00	0.00E+00	0.00E+00	0.00E+00
	3150000000	1.42E-01	-1.49E-01	2.44E-01	8.04E-01	0.00E+00	0.00E+00	0.00E+00	0.00E+00
	3200000000	4.11E-02	-1.17E-01	1.06E-01	8.31E-01	0.00E+00	0.00E+00	0.00E+00	0.00E+00
	3250000000	2.09E-02	-3.58E-02	-5.55E-02	8.23E-01	0.00E+00	0.00E+00	0.00E+00	0.00E+00
	3300000000	5.73E-02	1.18E-02	-2.16E-01	7.89E-01	0.00E+00	0.00E+00	0.00E+00	0.00E+00
	3350000000	9.21E-02	1.74E-02	-3.58E-01	7.29E-01	0.00E+00	0.00E+00	0.00E+00	0.00E+00
	3400000000	9.64E-02	3.02E-02	-4.74E-01	6.49E-01	0.00E+00	0.00E+00	0.00E+00	0.00E+00
	3450000000	1.85E-01	9.61E-02	-5.00E-01	5.09E-01	0.00E+00	0.00E+00	0.00E+00	0.00E+00
	3500000000	2.79E-01	-6.57E-03	-5.64E-01	2.82E-01	0.00E+00	0.00E+00	0.00E+00	0.00E+00
	3550000000	2.70E-01	-1.51E-01	-6.39E-01	3.68E-02	0.00E+00	0.00E+00	0.00E+00	0.00E+00
	3600000000	1.50E-01	-1.97E-01	-7.13E-01	-1.33E-01	0.00E+00	0.00E+00	0.00E+00	0.00E+00
	3650000000	7.70E-02	-1.72E-01	-7.06E-01	-2.91E-01	0.00E+00	0.00E+00	0.00E+00	0.00E+00
	3700000000	2.20E-02	-1.35E-01	-6.54E-01	-4.63E-01	0.00E+00	0.00E+00	0.00E+00	0.00E+00
	3750000000	-1.48E-02	-6.19E-02	-5.87E-01	-6.12E-01	0.00E+00	0.00E+00	0.00E+00	0.00E+00
	3800000000	1.61E-02	2.32E-02	-4.79E-01	-7.14E-01	0.00E+00	0.00E+00	0.00E+00	0.00E+00
	3850000000	8.12E-02	4.28E-02	-3.17E-01	-7.91E-01	0.00E+00	0.00E+00	0.00E+00	0.00E+00
	3900000000	1.00E-01	4.20E-02	-1.41E-01	-8.51E-01	0.00E+00	0.00E+00	0.00E+00	0.00E+00
	3950000000	1.43E-01	8.88E-02	2.51E-02	-8.51E-01	0.00E+00	0.00E+00	0.00E+00	0.00E+00
	4000000000	2.79E-01	7.90E-02	2.29E-01	-8.05E-01	0.00E+00	0.00E+00	0.00E+00	0.00E+00
	4050000000	3.80E-01	-8.57E-02	4.36E-01	-7.58E-01	0.00E+00	0.00E+00	0.00E+00	0.00E+00
	4100000000	3.02E-01	-2.98E-01	5.80E-01	-6.84E-01	0.00E+00	0.00E+00	0.00E+00	0.00E+00
	4150000000	8.20E-02	-3.76E-01	7.10E-01	-5.41E-01	0.00E+00	0.00E+00	0.00E+00	0.00E+00
	4200000000	-9.46E-02	-2.70E-01	8.42E-01	-3.87E-01	0.00E+00	0.00E+00	0.00E+00	0.00E+00
	4250000000	-1.35E-01	-1.33E-01	9.06E-01	-2.45E-01	0.00E+00	0.00E+00	0.00E+00	0.00E+00
	4300000000	-1.50E-01	-3.17E-02	9.09E-01	-5.81E-02	0.00E+00	0.00E+00	0.00E+00	0.00E+00
	4350000000	-1.22E-01	1.39E-01	8.95E-01	1.23E-01	0.00E+00	0.00E+00	0.00E+00	0.00E+00
	4400000000	9.66E-02	2.79E-01	8.18E-01	2.87E-01	0.00E+00	0.00E+00	0.00E+00	0.00E+00
	4450000000	3.81E-01	1.68E-01	6.92E-01	4.60E-01	0.00E+00	0.00E+00	0.00E+00	0.00E+00
	4500000000	4.67E-01	-1.24E-01	5.57E-01	6.27E-01	0.00E+00	0.00E+00	0.00E+00	0.00E+00
	4550000000	3.10E-01	-3.47E-01	3.92E-01	7.34E-01	0.00E+00	0.00E+00	0.00E+00	0.00E+00
	4600000000	1.03E-01	-3.51E-01	1.92E-01	8.27E-01	0.00E+00	0.00E+00	0.00E+00	0.00E+00
	4650000000	3.58E-02	-3.01E-01	-2.13E-03	8.69E-01	0.00E+00	0.00E+00	0.00E+00	0.00E+00
	4700000000	-6.57E-02	-2.41E-01	-2.29E-01	8.84E-01	0.00E+00	0.00E+00	0.00E+00	0.00E+00
	4750000000	-1.07E-01	-1.67E-01	-4.15E-01	8.20E-01	0.00E+00	0.00E+00	0.00E+00	0.00E+00
	4800000000	-1.29E-01	-6.77E-04	-6.75E-01	7.42E-01	0.00E+00	0.00E+00	0.00E+00	0.00E+00
	4850000000	5.92E-02	1.31E-01	-9.12E-01	7.19E-01	0.00E+00	0.00E+00	0.00E+00	0.00E+00
	4900000000	2.51E-01	5.83E-04	-1.02E+00	6.84E-01	0.00E+00	0.00E+00	0.00E+00	0.00E+00
	4950000000	1.93E-01	-1.93E-01	-1.03E+00	5.53E-01	0.00E+00	0.00E+00	0.00E+00	0.00E+00
	5000000000	1.58E-02	-1.63E-01	-1.05E+00	3.71E-01	0.00E+00	0.00E+00	0.00E+00	0.00E+00
	5050000000	5.24E-02	1.31E-02	-1.08E+00	8.37E-02	0.00E+00	0.00E+00	0.00E+00	0.00E+00
	5100000000	2.55E-01	-1.95E-02	-1.08E+00	-1.10E-02	0.00E+00	0.00E+00	0.00E+00	0.00E+00
	5150000000	2.74E-01	-2.44E-01	-9.90E-01	-1.81E-01	0.00E+00	0.00E+00	0.00E+00	0.00E+00
	5200000000	7.51E-02	-3.49E-01	-8.74E-01	-3.58E-01	0.00E+00	0.00E+00	0.00E+00	0.00E+00
	5250000000	-7.20E-02	-2.35E-01	-7.49E-01	-5.30E-01	0.00E+00	0.00E+00	0.00E+00	0.00E+00
	5300000000	-3.61E-02	-1.48E-01	-6.10E-01	-6.70E-01	0.00E+00	0.00E+00	0.00E+00	0.00E+00
	5350000000	-5.64E-02	-1.89E-01	-4.62E-01	-7.32E-01	0.00E+00	0.00E+00	0.00E+00	0.00E+00
	5400000000	-1.62E-01	-1.09E-01	-2.54E-01	-7.88E-01	0.00E+00	0.00E+00	0.00E+00	0.00E+00
	5450000000	-9.71E-02	7.48E-02	-7.89E-02	-8.40E-01	0.00E+00	0.00E+00	0.00E+00	0.00E+00
	5500000000	1.28E-01	6.51E-02	5.68E-02	-8.03E-01	0.00E+00	0.00E+00	0.00E+00	0.00E+00
	5550000000	1.85E-01	-1.33E-01	2.25E-01	-6.94E-01	0.00E+00	0.00E+00	0.00E+00	0.00E+00
	5600000000	4.72E-02	-2.03E-01	3.87E-01	-5.63E-01	0.00E+00	0.00E+00	0.00E+00	0.00E+00
	5650000000	4.05E-02	-1.38E-01	5.40E-01	-4.20E-01	0.00E+00	0.00E+00	0.00E+00	0.00E+00
	5700000000	8.95E-02	-1.47E-01	6.52E-01	-2.83E-01	0.00E+00	0.00E+00	0.00E+00	0.00E+00
	5750000000	1.27E-01	-2.32E-01	7.06E-01	-1.19E-01	0.00E+00	0.00E+00	0.00E+00	0.00E+00
	5800000000	5.73E-02	-3.26E-01	7.30E-01	4.34E-02	0.00E+00	0.00E+00	0.00E+00	0.00E+00
	5850000000	-6.04E-02	-3.19E-01	7.01E-01	2.09E-01	0.00E+00	0.00E+00	0.00E+00	0.00E+00
	5900000000	-7.96E-02	-2.23E-01	6.62E-01	3.72E-01	0.00E+00	0.00E+00	0.00E+00	0.00E+00
	5950000000	-5.60E-03	-2.37E-01	5.97E-01	4.86E-01	0.00E+00	0.00E+00	0.00E+00	0.00E+00
	6000000000	-1.19E-01	-2.81E-01	7.39E-01	3.06E-02	0.00E+00	0.00E+00	0.00E+00	0.00E+00
