! NanoVNA-App									
! Date: 2024-03-21 15:18:29									
! Start: 1GHz Stop: 6GHz Points: 101									
! S-Parameter data: F S11 S21 S12 S22									
# Hz S RI R 50									
!	Frequency	S11_Real	S11_Imag	S21_Real	S21_Imag	S12_Real	S12_Imag	S22_Real	S22_Imag
	1000000000	1.21E-01	-2.32E-02	-5.57E-01	-8.76E-01	0.00E+00	0.00E+00	0.00E+00	0.00E+00
	1050000000	5.21E-02	-2.22E-02	-3.78E-01	-9.64E-01	0.00E+00	0.00E+00	0.00E+00	0.00E+00
	1100000000	4.95E-02	-1.14E-02	-1.73E-01	-1.02E+00	0.00E+00	0.00E+00	0.00E+00	0.00E+00
	1150000000	2.92E-02	-4.73E-02	3.39E-02	-1.03E+00	0.00E+00	0.00E+00	0.00E+00	0.00E+00
	1200000000	-5.18E-02	-3.66E-02	2.39E-01	-9.90E-01	0.00E+00	0.00E+00	0.00E+00	0.00E+00
	1250000000	-7.91E-02	6.73E-02	4.46E-01	-9.11E-01	0.00E+00	0.00E+00	0.00E+00	0.00E+00
	1300000000	1.49E-02	1.36E-01	6.28E-01	-8.04E-01	0.00E+00	0.00E+00	0.00E+00	0.00E+00
	1350000000	1.01E-01	6.57E-02	7.68E-01	-6.58E-01	0.00E+00	0.00E+00	0.00E+00	0.00E+00
	1400000000	7.30E-02	4.75E-03	8.99E-01	-4.87E-01	0.00E+00	0.00E+00	0.00E+00	0.00E+00
	1450000000	1.80E-02	2.22E-02	9.71E-01	-3.05E-01	0.00E+00	0.00E+00	0.00E+00	0.00E+00
	1500000000	5.33E-02	6.30E-02	1.00E+00	-1.07E-01	0.00E+00	0.00E+00	0.00E+00	0.00E+00
	1550000000	9.56E-02	4.20E-03	9.91E-01	9.62E-02	0.00E+00	0.00E+00	0.00E+00	0.00E+00
	1600000000	1.15E-02	-5.79E-02	9.47E-01	2.89E-01	0.00E+00	0.00E+00	0.00E+00	0.00E+00
	1650000000	-9.43E-02	3.79E-02	8.62E-01	4.58E-01	0.00E+00	0.00E+00	0.00E+00	0.00E+00
	1700000000	-2.46E-02	1.97E-01	7.32E-01	6.01E-01	0.00E+00	0.00E+00	0.00E+00	0.00E+00
	1750000000	1.61E-01	1.97E-01	5.78E-01	7.34E-01	0.00E+00	0.00E+00	0.00E+00	0.00E+00
	1800000000	2.37E-01	4.15E-02	4.26E-01	8.43E-01	0.00E+00	0.00E+00	0.00E+00	0.00E+00
	1850000000	1.52E-01	-7.25E-02	2.74E-01	8.97E-01	0.00E+00	0.00E+00	0.00E+00	0.00E+00
	1900000000	6.43E-02	-5.48E-02	1.28E-01	9.11E-01	0.00E+00	0.00E+00	0.00E+00	0.00E+00
	1950000000	5.40E-02	-2.04E-02	1.31E-02	8.90E-01	0.00E+00	0.00E+00	0.00E+00	0.00E+00
	2000000000	7.91E-02	-2.24E-02	-4.06E-02	8.07E-01	0.00E+00	0.00E+00	0.00E+00	0.00E+00
	2050000000	5.75E-02	-2.02E-01	-3.57E-02	5.51E-01	0.00E+00	0.00E+00	0.00E+00	0.00E+00
	2100000000	-3.99E-01	-3.39E-02	-2.89E-01	1.98E-01	0.00E+00	0.00E+00	0.00E+00	0.00E+00
	2150000000	-1.91E-01	4.70E-01	-5.03E-01	6.90E-02	0.00E+00	0.00E+00	0.00E+00	0.00E+00
	2200000000	2.65E-01	4.83E-01	-6.04E-01	-4.72E-02	0.00E+00	0.00E+00	0.00E+00	0.00E+00
	2250000000	5.13E-01	1.80E-01	-6.40E-01	-1.58E-01	0.00E+00	0.00E+00	0.00E+00	0.00E+00
	2300000000	4.62E-01	-1.63E-01	-6.14E-01	-2.65E-01	0.00E+00	0.00E+00	0.00E+00	0.00E+00
	2350000000	2.13E-01	-3.48E-01	-5.45E-01	-3.75E-01	0.00E+00	0.00E+00	0.00E+00	0.00E+00
	2400000000	-7.55E-02	-3.17E-01	-4.61E-01	-4.69E-01	0.00E+00	0.00E+00	0.00E+00	0.00E+00
	2450000000	-2.41E-01	-8.71E-02	-3.73E-01	-5.29E-01	0.00E+00	0.00E+00	0.00E+00	0.00E+00
	2500000000	-1.30E-01	1.29E-01	-3.06E-01	-4.98E-01	0.00E+00	0.00E+00	0.00E+00	0.00E+00
	2550000000	-1.66E-01	1.38E-01	-3.68E-02	-3.39E-01	0.00E+00	0.00E+00	0.00E+00	0.00E+00
	2600000000	4.32E-02	3.78E-01	2.12E-01	-4.02E-01	0.00E+00	0.00E+00	0.00E+00	0.00E+00
	2650000000	3.40E-01	2.65E-01	3.54E-01	-3.84E-01	0.00E+00	0.00E+00	0.00E+00	0.00E+00
	2700000000	4.10E-01	-1.62E-02	4.77E-01	-3.06E-01	0.00E+00	0.00E+00	0.00E+00	0.00E+00
	2750000000	2.59E-01	-2.20E-01	5.87E-01	-1.96E-01	0.00E+00	0.00E+00	0.00E+00	0.00E+00
	2800000000	4.08E-02	-2.32E-01	6.80E-01	-7.60E-02	0.00E+00	0.00E+00	0.00E+00	0.00E+00
	2850000000	-7.34E-02	-1.01E-01	7.24E-01	4.39E-02	0.00E+00	0.00E+00	0.00E+00	0.00E+00
	2900000000	-5.49E-02	3.36E-02	7.08E-01	1.68E-01	0.00E+00	0.00E+00	0.00E+00	0.00E+00
	2950000000	1.31E-02	8.31E-02	6.37E-01	3.46E-01	0.00E+00	0.00E+00	0.00E+00	0.00E+00
	3000000000	1.07E-01	1.31E-01	5.92E-01	4.95E-01	0.00E+00	0.00E+00	0.00E+00	0.00E+00
	3050000000	2.21E-01	6.44E-02	4.98E-01	6.13E-01	0.00E+00	0.00E+00	0.00E+00	0.00E+00
	3100000000	2.34E-01	-6.61E-02	3.67E-01	7.23E-01	0.00E+00	0.00E+00	0.00E+00	0.00E+00
	3150000000	1.41E-01	-1.46E-01	2.42E-01	8.09E-01	0.00E+00	0.00E+00	0.00E+00	0.00E+00
	3200000000	4.28E-02	-1.14E-01	1.05E-01	8.36E-01	0.00E+00	0.00E+00	0.00E+00	0.00E+00
	3250000000	2.32E-02	-3.57E-02	-5.63E-02	8.25E-01	0.00E+00	0.00E+00	0.00E+00	0.00E+00
	3300000000	5.84E-02	9.68E-03	-2.17E-01	7.93E-01	0.00E+00	0.00E+00	0.00E+00	0.00E+00
	3350000000	9.16E-02	1.59E-02	-3.63E-01	7.30E-01	0.00E+00	0.00E+00	0.00E+00	0.00E+00
	3400000000	9.53E-02	2.98E-02	-4.76E-01	6.50E-01	0.00E+00	0.00E+00	0.00E+00	0.00E+00
	3450000000	1.85E-01	9.61E-02	-5.02E-01	5.07E-01	0.00E+00	0.00E+00	0.00E+00	0.00E+00
	3500000000	2.78E-01	-6.24E-03	-5.68E-01	2.80E-01	0.00E+00	0.00E+00	0.00E+00	0.00E+00
	3550000000	2.69E-01	-1.51E-01	-6.44E-01	3.31E-02	0.00E+00	0.00E+00	0.00E+00	0.00E+00
	3600000000	1.49E-01	-1.97E-01	-7.17E-01	-1.35E-01	0.00E+00	0.00E+00	0.00E+00	0.00E+00
	3650000000	7.72E-02	-1.71E-01	-7.09E-01	-2.94E-01	0.00E+00	0.00E+00	0.00E+00	0.00E+00
	3700000000	2.23E-02	-1.35E-01	-6.54E-01	-4.69E-01	0.00E+00	0.00E+00	0.00E+00	0.00E+00
	3750000000	-1.44E-02	-6.15E-02	-5.86E-01	-6.17E-01	0.00E+00	0.00E+00	0.00E+00	0.00E+00
	3800000000	1.69E-02	2.28E-02	-4.81E-01	-7.16E-01	0.00E+00	0.00E+00	0.00E+00	0.00E+00
	3850000000	8.17E-02	4.14E-02	-3.14E-01	-7.94E-01	0.00E+00	0.00E+00	0.00E+00	0.00E+00
	3900000000	9.96E-02	4.01E-02	-1.39E-01	-8.54E-01	0.00E+00	0.00E+00	0.00E+00	0.00E+00
	3950000000	1.41E-01	8.78E-02	2.48E-02	-8.54E-01	0.00E+00	0.00E+00	0.00E+00	0.00E+00
	4000000000	2.77E-01	8.06E-02	2.33E-01	-8.07E-01	0.00E+00	0.00E+00	0.00E+00	0.00E+00
	4050000000	3.80E-01	-8.43E-02	4.35E-01	-7.61E-01	0.00E+00	0.00E+00	0.00E+00	0.00E+00
	4100000000	3.03E-01	-2.97E-01	5.82E-01	-6.86E-01	0.00E+00	0.00E+00	0.00E+00	0.00E+00
	4150000000	8.46E-02	-3.76E-01	7.12E-01	-5.41E-01	0.00E+00	0.00E+00	0.00E+00	0.00E+00
	4200000000	-9.31E-02	-2.71E-01	8.45E-01	-3.85E-01	0.00E+00	0.00E+00	0.00E+00	0.00E+00
	4250000000	-1.35E-01	-1.34E-01	9.08E-01	-2.47E-01	0.00E+00	0.00E+00	0.00E+00	0.00E+00
	4300000000	-1.50E-01	-3.12E-02	9.11E-01	-6.11E-02	0.00E+00	0.00E+00	0.00E+00	0.00E+00
	4350000000	-1.23E-01	1.39E-01	8.96E-01	1.26E-01	0.00E+00	0.00E+00	0.00E+00	0.00E+00
	4400000000	9.58E-02	2.80E-01	8.21E-01	2.85E-01	0.00E+00	0.00E+00	0.00E+00	0.00E+00
	4450000000	3.81E-01	1.70E-01	6.93E-01	4.63E-01	0.00E+00	0.00E+00	0.00E+00	0.00E+00
	4500000000	4.67E-01	-1.22E-01	5.58E-01	6.28E-01	0.00E+00	0.00E+00	0.00E+00	0.00E+00
	4550000000	3.11E-01	-3.46E-01	3.91E-01	7.35E-01	0.00E+00	0.00E+00	0.00E+00	0.00E+00
	4600000000	1.05E-01	-3.52E-01	1.91E-01	8.27E-01	0.00E+00	0.00E+00	0.00E+00	0.00E+00
	4650000000	3.55E-02	-3.04E-01	-6.77E-03	8.69E-01	0.00E+00	0.00E+00	0.00E+00	0.00E+00
	4700000000	-6.50E-02	-2.43E-01	-2.36E-01	8.84E-01	0.00E+00	0.00E+00	0.00E+00	0.00E+00
	4750000000	-1.09E-01	-1.67E-01	-4.18E-01	8.21E-01	0.00E+00	0.00E+00	0.00E+00	0.00E+00
	4800000000	-1.31E-01	1.09E-04	-6.79E-01	7.40E-01	0.00E+00	0.00E+00	0.00E+00	0.00E+00
	4850000000	5.85E-02	1.33E-01	-9.12E-01	7.20E-01	0.00E+00	0.00E+00	0.00E+00	0.00E+00
	4900000000	2.51E-01	2.63E-03	-1.02E+00	6.83E-01	0.00E+00	0.00E+00	0.00E+00	0.00E+00
	4950000000	1.94E-01	-1.92E-01	-1.03E+00	5.54E-01	0.00E+00	0.00E+00	0.00E+00	0.00E+00
	5000000000	1.71E-02	-1.63E-01	-1.06E+00	3.67E-01	0.00E+00	0.00E+00	0.00E+00	0.00E+00
	5050000000	5.19E-02	1.17E-02	-1.08E+00	8.18E-02	0.00E+00	0.00E+00	0.00E+00	0.00E+00
	5100000000	2.53E-01	-2.09E-02	-1.08E+00	-1.61E-02	0.00E+00	0.00E+00	0.00E+00	0.00E+00
	5150000000	2.72E-01	-2.43E-01	-9.89E-01	-1.89E-01	0.00E+00	0.00E+00	0.00E+00	0.00E+00
	5200000000	7.21E-02	-3.47E-01	-8.73E-01	-3.60E-01	0.00E+00	0.00E+00	0.00E+00	0.00E+00
	5250000000	-7.33E-02	-2.33E-01	-7.47E-01	-5.33E-01	0.00E+00	0.00E+00	0.00E+00	0.00E+00
	5300000000	-3.37E-02	-1.47E-01	-6.07E-01	-6.74E-01	0.00E+00	0.00E+00	0.00E+00	0.00E+00
	5350000000	-5.46E-02	-1.88E-01	-4.60E-01	-7.34E-01	0.00E+00	0.00E+00	0.00E+00	0.00E+00
	5400000000	-1.61E-01	-1.09E-01	-2.52E-01	-7.89E-01	0.00E+00	0.00E+00	0.00E+00	0.00E+00
	5450000000	-9.78E-02	7.29E-02	-7.53E-02	-8.40E-01	0.00E+00	0.00E+00	0.00E+00	0.00E+00
	5500000000	1.26E-01	6.45E-02	5.87E-02	-8.05E-01	0.00E+00	0.00E+00	0.00E+00	0.00E+00
	5550000000	1.84E-01	-1.31E-01	2.20E-01	-6.96E-01	0.00E+00	0.00E+00	0.00E+00	0.00E+00
	5600000000	4.54E-02	-2.01E-01	3.89E-01	-5.61E-01	0.00E+00	0.00E+00	0.00E+00	0.00E+00
	5650000000	4.02E-02	-1.37E-01	5.45E-01	-4.14E-01	0.00E+00	0.00E+00	0.00E+00	0.00E+00
	5700000000	8.79E-02	-1.45E-01	6.54E-01	-2.82E-01	0.00E+00	0.00E+00	0.00E+00	0.00E+00
	5750000000	1.27E-01	-2.30E-01	7.08E-01	-1.18E-01	0.00E+00	0.00E+00	0.00E+00	0.00E+00
	5800000000	5.99E-02	-3.25E-01	7.31E-01	4.67E-02	0.00E+00	0.00E+00	0.00E+00	0.00E+00
	5850000000	-6.23E-02	-3.20E-01	7.02E-01	2.10E-01	0.00E+00	0.00E+00	0.00E+00	0.00E+00
	5900000000	-8.02E-02	-2.24E-01	6.61E-01	3.77E-01	0.00E+00	0.00E+00	0.00E+00	0.00E+00
	5950000000	-9.36E-03	-2.36E-01	5.97E-01	4.88E-01	0.00E+00	0.00E+00	0.00E+00	0.00E+00
	6000000000	-1.19E-01	-2.79E-01	7.42E-01	3.44E-02	0.00E+00	0.00E+00	0.00E+00	0.00E+00
