! NanoVNA-App									
! Date: 2024-03-21 16:42:29									
! Start: 1GHz Stop: 6GHz Points: 101									
! S-Parameter data: F S11 S21 S12 S22									
# Hz S RI R 50									
!	Frequency	S11_Real	S11_Imag	S21_Real	S21_Imag	S12_Real	S12_Imag	S22_Real	S22_Imag
	1000000000	1.20E-01	-2.25E-02	-5.59E-01	-8.75E-01	0.00E+00	0.00E+00	0.00E+00	0.00E+00
	1050000000	5.18E-02	-2.15E-02	-3.78E-01	-9.62E-01	0.00E+00	0.00E+00	0.00E+00	0.00E+00
	1100000000	4.98E-02	-1.12E-02	-1.72E-01	-1.02E+00	0.00E+00	0.00E+00	0.00E+00	0.00E+00
	1150000000	2.92E-02	-4.76E-02	3.28E-02	-1.03E+00	0.00E+00	0.00E+00	0.00E+00	0.00E+00
	1200000000	-5.21E-02	-3.71E-02	2.39E-01	-9.89E-01	0.00E+00	0.00E+00	0.00E+00	0.00E+00
	1250000000	-7.95E-02	6.66E-02	4.45E-01	-9.11E-01	0.00E+00	0.00E+00	0.00E+00	0.00E+00
	1300000000	1.37E-02	1.35E-01	6.27E-01	-8.04E-01	0.00E+00	0.00E+00	0.00E+00	0.00E+00
	1350000000	9.93E-02	6.63E-02	7.69E-01	-6.58E-01	0.00E+00	0.00E+00	0.00E+00	0.00E+00
	1400000000	7.19E-02	5.16E-03	8.99E-01	-4.89E-01	0.00E+00	0.00E+00	0.00E+00	0.00E+00
	1450000000	1.73E-02	2.36E-02	9.73E-01	-3.04E-01	0.00E+00	0.00E+00	0.00E+00	0.00E+00
	1500000000	5.39E-02	6.44E-02	1.00E+00	-1.06E-01	0.00E+00	0.00E+00	0.00E+00	0.00E+00
	1550000000	9.70E-02	4.78E-03	9.92E-01	9.58E-02	0.00E+00	0.00E+00	0.00E+00	0.00E+00
	1600000000	1.35E-02	-5.91E-02	9.47E-01	2.91E-01	0.00E+00	0.00E+00	0.00E+00	0.00E+00
	1650000000	-9.37E-02	3.50E-02	8.61E-01	4.59E-01	0.00E+00	0.00E+00	0.00E+00	0.00E+00
	1700000000	-2.69E-02	1.94E-01	7.34E-01	6.03E-01	0.00E+00	0.00E+00	0.00E+00	0.00E+00
	1750000000	1.57E-01	1.96E-01	5.79E-01	7.36E-01	0.00E+00	0.00E+00	0.00E+00	0.00E+00
	1800000000	2.33E-01	4.31E-02	4.27E-01	8.45E-01	0.00E+00	0.00E+00	0.00E+00	0.00E+00
	1850000000	1.51E-01	-6.84E-02	2.75E-01	9.00E-01	0.00E+00	0.00E+00	0.00E+00	0.00E+00
	1900000000	6.72E-02	-5.12E-02	1.30E-01	9.16E-01	0.00E+00	0.00E+00	0.00E+00	0.00E+00
	1950000000	5.94E-02	-2.08E-02	1.05E-02	8.95E-01	0.00E+00	0.00E+00	0.00E+00	0.00E+00
	2000000000	8.24E-02	-2.76E-02	-4.13E-02	8.11E-01	0.00E+00	0.00E+00	0.00E+00	0.00E+00
	2050000000	5.25E-02	-2.09E-01	-3.48E-02	5.56E-01	0.00E+00	0.00E+00	0.00E+00	0.00E+00
	2100000000	-4.05E-01	-3.52E-02	-2.91E-01	2.05E-01	0.00E+00	0.00E+00	0.00E+00	0.00E+00
	2150000000	-1.94E-01	4.68E-01	-5.07E-01	7.13E-02	0.00E+00	0.00E+00	0.00E+00	0.00E+00
	2200000000	2.59E-01	4.85E-01	-6.10E-01	-4.78E-02	0.00E+00	0.00E+00	0.00E+00	0.00E+00
	2250000000	5.10E-01	1.85E-01	-6.47E-01	-1.58E-01	0.00E+00	0.00E+00	0.00E+00	0.00E+00
	2300000000	4.64E-01	-1.57E-01	-6.23E-01	-2.65E-01	0.00E+00	0.00E+00	0.00E+00	0.00E+00
	2350000000	2.21E-01	-3.47E-01	-5.57E-01	-3.76E-01	0.00E+00	0.00E+00	0.00E+00	0.00E+00
	2400000000	-6.59E-02	-3.21E-01	-4.73E-01	-4.72E-01	0.00E+00	0.00E+00	0.00E+00	0.00E+00
	2450000000	-2.38E-01	-9.90E-02	-3.85E-01	-5.33E-01	0.00E+00	0.00E+00	0.00E+00	0.00E+00
	2500000000	-1.38E-01	1.20E-01	-3.19E-01	-5.04E-01	0.00E+00	0.00E+00	0.00E+00	0.00E+00
	2550000000	-1.81E-01	1.40E-01	-4.48E-02	-3.44E-01	0.00E+00	0.00E+00	0.00E+00	0.00E+00
	2600000000	3.59E-02	3.89E-01	2.01E-01	-4.11E-01	0.00E+00	0.00E+00	0.00E+00	0.00E+00
	2650000000	3.45E-01	2.76E-01	3.41E-01	-3.95E-01	0.00E+00	0.00E+00	0.00E+00	0.00E+00
	2700000000	4.22E-01	-1.21E-02	4.66E-01	-3.17E-01	0.00E+00	0.00E+00	0.00E+00	0.00E+00
	2750000000	2.67E-01	-2.26E-01	5.74E-01	-2.10E-01	0.00E+00	0.00E+00	0.00E+00	0.00E+00
	2800000000	4.60E-02	-2.38E-01	6.60E-01	-8.46E-02	0.00E+00	0.00E+00	0.00E+00	0.00E+00
	2850000000	-8.18E-02	-1.10E-01	7.13E-01	3.44E-02	0.00E+00	0.00E+00	0.00E+00	0.00E+00
	2900000000	-6.71E-02	3.55E-02	7.00E-01	1.56E-01	0.00E+00	0.00E+00	0.00E+00	0.00E+00
	2950000000	7.49E-03	9.45E-02	6.26E-01	3.28E-01	0.00E+00	0.00E+00	0.00E+00	0.00E+00
	3000000000	1.13E-01	1.39E-01	5.86E-01	4.83E-01	0.00E+00	0.00E+00	0.00E+00	0.00E+00
	3050000000	2.29E-01	6.49E-02	4.95E-01	6.01E-01	0.00E+00	0.00E+00	0.00E+00	0.00E+00
	3100000000	2.39E-01	-7.14E-02	3.67E-01	7.13E-01	0.00E+00	0.00E+00	0.00E+00	0.00E+00
	3150000000	1.41E-01	-1.52E-01	2.43E-01	7.99E-01	0.00E+00	0.00E+00	0.00E+00	0.00E+00
	3200000000	3.89E-02	-1.18E-01	1.06E-01	8.27E-01	0.00E+00	0.00E+00	0.00E+00	0.00E+00
	3250000000	1.81E-02	-3.52E-02	-5.30E-02	8.19E-01	0.00E+00	0.00E+00	0.00E+00	0.00E+00
	3300000000	5.62E-02	1.37E-02	-2.11E-01	7.87E-01	0.00E+00	0.00E+00	0.00E+00	0.00E+00
	3350000000	9.28E-02	1.93E-02	-3.56E-01	7.27E-01	0.00E+00	0.00E+00	0.00E+00	0.00E+00
	3400000000	9.76E-02	3.11E-02	-4.70E-01	6.48E-01	0.00E+00	0.00E+00	0.00E+00	0.00E+00
	3450000000	1.88E-01	9.55E-02	-4.99E-01	5.06E-01	0.00E+00	0.00E+00	0.00E+00	0.00E+00
	3500000000	2.79E-01	-7.32E-03	-5.63E-01	2.82E-01	0.00E+00	0.00E+00	0.00E+00	0.00E+00
	3550000000	2.70E-01	-1.52E-01	-6.36E-01	3.87E-02	0.00E+00	0.00E+00	0.00E+00	0.00E+00
	3600000000	1.50E-01	-1.98E-01	-7.08E-01	-1.31E-01	0.00E+00	0.00E+00	0.00E+00	0.00E+00
	3650000000	7.53E-02	-1.72E-01	-7.01E-01	-2.90E-01	0.00E+00	0.00E+00	0.00E+00	0.00E+00
	3700000000	2.12E-02	-1.34E-01	-6.51E-01	-4.62E-01	0.00E+00	0.00E+00	0.00E+00	0.00E+00
	3750000000	-1.45E-02	-6.06E-02	-5.83E-01	-6.11E-01	0.00E+00	0.00E+00	0.00E+00	0.00E+00
	3800000000	1.59E-02	2.41E-02	-4.77E-01	-7.12E-01	0.00E+00	0.00E+00	0.00E+00	0.00E+00
	3850000000	8.14E-02	4.30E-02	-3.15E-01	-7.88E-01	0.00E+00	0.00E+00	0.00E+00	0.00E+00
	3900000000	1.00E-01	4.05E-02	-1.40E-01	-8.48E-01	0.00E+00	0.00E+00	0.00E+00	0.00E+00
	3950000000	1.41E-01	8.76E-02	2.70E-02	-8.48E-01	0.00E+00	0.00E+00	0.00E+00	0.00E+00
	4000000000	2.77E-01	7.87E-02	2.29E-01	-8.01E-01	0.00E+00	0.00E+00	0.00E+00	0.00E+00
	4050000000	3.79E-01	-8.54E-02	4.33E-01	-7.56E-01	0.00E+00	0.00E+00	0.00E+00	0.00E+00
	4100000000	3.02E-01	-2.96E-01	5.81E-01	-6.79E-01	0.00E+00	0.00E+00	0.00E+00	0.00E+00
	4150000000	8.42E-02	-3.75E-01	7.10E-01	-5.37E-01	0.00E+00	0.00E+00	0.00E+00	0.00E+00
	4200000000	-9.42E-02	-2.70E-01	8.40E-01	-3.87E-01	0.00E+00	0.00E+00	0.00E+00	0.00E+00
	4250000000	-1.35E-01	-1.33E-01	9.05E-01	-2.43E-01	0.00E+00	0.00E+00	0.00E+00	0.00E+00
	4300000000	-1.49E-01	-3.14E-02	9.07E-01	-5.76E-02	0.00E+00	0.00E+00	0.00E+00	0.00E+00
	4350000000	-1.22E-01	1.37E-01	8.92E-01	1.23E-01	0.00E+00	0.00E+00	0.00E+00	0.00E+00
	4400000000	9.44E-02	2.78E-01	8.16E-01	2.89E-01	0.00E+00	0.00E+00	0.00E+00	0.00E+00
	4450000000	3.80E-01	1.69E-01	6.90E-01	4.63E-01	0.00E+00	0.00E+00	0.00E+00	0.00E+00
	4500000000	4.66E-01	-1.23E-01	5.56E-01	6.29E-01	0.00E+00	0.00E+00	0.00E+00	0.00E+00
	4550000000	3.10E-01	-3.47E-01	3.90E-01	7.36E-01	0.00E+00	0.00E+00	0.00E+00	0.00E+00
	4600000000	1.03E-01	-3.51E-01	1.90E-01	8.28E-01	0.00E+00	0.00E+00	0.00E+00	0.00E+00
	4650000000	3.78E-02	-3.02E-01	-2.98E-03	8.68E-01	0.00E+00	0.00E+00	0.00E+00	0.00E+00
	4700000000	-6.36E-02	-2.42E-01	-2.33E-01	8.83E-01	0.00E+00	0.00E+00	0.00E+00	0.00E+00
	4750000000	-1.06E-01	-1.68E-01	-4.15E-01	8.20E-01	0.00E+00	0.00E+00	0.00E+00	0.00E+00
	4800000000	-1.29E-01	-4.40E-03	-6.76E-01	7.39E-01	0.00E+00	0.00E+00	0.00E+00	0.00E+00
	4850000000	5.83E-02	1.30E-01	-9.09E-01	7.20E-01	0.00E+00	0.00E+00	0.00E+00	0.00E+00
	4900000000	2.50E-01	3.56E-04	-1.01E+00	6.87E-01	0.00E+00	0.00E+00	0.00E+00	0.00E+00
	4950000000	1.92E-01	-1.92E-01	-1.03E+00	5.52E-01	0.00E+00	0.00E+00	0.00E+00	0.00E+00
	5000000000	1.64E-02	-1.62E-01	-1.05E+00	3.69E-01	0.00E+00	0.00E+00	0.00E+00	0.00E+00
	5050000000	5.35E-02	1.39E-02	-1.08E+00	8.61E-02	0.00E+00	0.00E+00	0.00E+00	0.00E+00
	5100000000	2.56E-01	-2.00E-02	-1.08E+00	-1.25E-02	0.00E+00	0.00E+00	0.00E+00	0.00E+00
	5150000000	2.76E-01	-2.44E-01	-9.87E-01	-1.84E-01	0.00E+00	0.00E+00	0.00E+00	0.00E+00
	5200000000	7.35E-02	-3.49E-01	-8.72E-01	-3.57E-01	0.00E+00	0.00E+00	0.00E+00	0.00E+00
	5250000000	-7.38E-02	-2.35E-01	-7.48E-01	-5.27E-01	0.00E+00	0.00E+00	0.00E+00	0.00E+00
	5300000000	-3.65E-02	-1.48E-01	-6.10E-01	-6.67E-01	0.00E+00	0.00E+00	0.00E+00	0.00E+00
	5350000000	-5.74E-02	-1.88E-01	-4.62E-01	-7.31E-01	0.00E+00	0.00E+00	0.00E+00	0.00E+00
	5400000000	-1.60E-01	-1.08E-01	-2.51E-01	-7.88E-01	0.00E+00	0.00E+00	0.00E+00	0.00E+00
	5450000000	-9.50E-02	7.38E-02	-8.16E-02	-8.38E-01	0.00E+00	0.00E+00	0.00E+00	0.00E+00
	5500000000	1.29E-01	6.38E-02	5.68E-02	-8.02E-01	0.00E+00	0.00E+00	0.00E+00	0.00E+00
	5550000000	1.87E-01	-1.32E-01	2.28E-01	-6.91E-01	0.00E+00	0.00E+00	0.00E+00	0.00E+00
	5600000000	4.67E-02	-2.02E-01	3.86E-01	-5.62E-01	0.00E+00	0.00E+00	0.00E+00	0.00E+00
	5650000000	4.20E-02	-1.40E-01	5.40E-01	-4.15E-01	0.00E+00	0.00E+00	0.00E+00	0.00E+00
	5700000000	8.72E-02	-1.48E-01	6.52E-01	-2.82E-01	0.00E+00	0.00E+00	0.00E+00	0.00E+00
	5750000000	1.23E-01	-2.31E-01	7.05E-01	-1.24E-01	0.00E+00	0.00E+00	0.00E+00	0.00E+00
	5800000000	5.75E-02	-3.24E-01	7.30E-01	3.98E-02	0.00E+00	0.00E+00	0.00E+00	0.00E+00
	5850000000	-5.71E-02	-3.18E-01	7.00E-01	2.10E-01	0.00E+00	0.00E+00	0.00E+00	0.00E+00
	5900000000	-7.54E-02	-2.24E-01	6.59E-01	3.76E-01	0.00E+00	0.00E+00	0.00E+00	0.00E+00
	5950000000	-4.92E-03	-2.38E-01	5.97E-01	4.84E-01	0.00E+00	0.00E+00	0.00E+00	0.00E+00
	6000000000	-1.19E-01	-2.81E-01	7.39E-01	2.95E-02	0.00E+00	0.00E+00	0.00E+00	0.00E+00
