! NanoVNA-App									
! Date: 2024-03-21 12:27:36									
! Start: 1GHz Stop: 6GHz Points: 101									
! S-Parameter data: F S11 S21 S12 S22									
# Hz S RI R 50									
!	Frequency	S11_Real	S11_Imag	S21_Real	S21_Imag	S12_Real	S12_Imag	S22_Real	S22_Imag
	1000000000	1.22E-01	-2.35E-02	-5.54E-01	-8.78E-01	0.00E+00	0.00E+00	0.00E+00	0.00E+00
	1050000000	5.28E-02	-2.26E-02	-3.73E-01	-9.64E-01	0.00E+00	0.00E+00	0.00E+00	0.00E+00
	1100000000	5.03E-02	-1.06E-02	-1.66E-01	-1.02E+00	0.00E+00	0.00E+00	0.00E+00	0.00E+00
	1150000000	3.09E-02	-4.62E-02	3.80E-02	-1.03E+00	0.00E+00	0.00E+00	0.00E+00	0.00E+00
	1200000000	-4.93E-02	-3.62E-02	2.46E-01	-9.88E-01	0.00E+00	0.00E+00	0.00E+00	0.00E+00
	1250000000	-7.71E-02	6.70E-02	4.50E-01	-9.08E-01	0.00E+00	0.00E+00	0.00E+00	0.00E+00
	1300000000	1.62E-02	1.36E-01	6.31E-01	-8.00E-01	0.00E+00	0.00E+00	0.00E+00	0.00E+00
	1350000000	1.02E-01	6.57E-02	7.71E-01	-6.53E-01	0.00E+00	0.00E+00	0.00E+00	0.00E+00
	1400000000	7.44E-02	4.89E-03	9.02E-01	-4.80E-01	0.00E+00	0.00E+00	0.00E+00	0.00E+00
	1450000000	1.81E-02	2.21E-02	9.73E-01	-2.99E-01	0.00E+00	0.00E+00	0.00E+00	0.00E+00
	1500000000	5.27E-02	6.42E-02	1.00E+00	-1.01E-01	0.00E+00	0.00E+00	0.00E+00	0.00E+00
	1550000000	9.55E-02	6.64E-03	9.90E-01	1.02E-01	0.00E+00	0.00E+00	0.00E+00	0.00E+00
	1600000000	1.28E-02	-5.55E-02	9.44E-01	2.93E-01	0.00E+00	0.00E+00	0.00E+00	0.00E+00
	1650000000	-9.26E-02	3.98E-02	8.58E-01	4.63E-01	0.00E+00	0.00E+00	0.00E+00	0.00E+00
	1700000000	-2.22E-02	1.98E-01	7.28E-01	6.06E-01	0.00E+00	0.00E+00	0.00E+00	0.00E+00
	1750000000	1.64E-01	1.97E-01	5.73E-01	7.36E-01	0.00E+00	0.00E+00	0.00E+00	0.00E+00
	1800000000	2.39E-01	3.93E-02	4.20E-01	8.44E-01	0.00E+00	0.00E+00	0.00E+00	0.00E+00
	1850000000	1.52E-01	-7.50E-02	2.66E-01	8.99E-01	0.00E+00	0.00E+00	0.00E+00	0.00E+00
	1900000000	6.18E-02	-5.69E-02	1.20E-01	9.12E-01	0.00E+00	0.00E+00	0.00E+00	0.00E+00
	1950000000	5.01E-02	-2.03E-02	6.01E-03	8.90E-01	0.00E+00	0.00E+00	0.00E+00	0.00E+00
	2000000000	7.31E-02	-1.88E-02	-5.05E-02	8.07E-01	0.00E+00	0.00E+00	0.00E+00	0.00E+00
	2050000000	5.97E-02	-1.87E-01	-3.86E-02	5.61E-01	0.00E+00	0.00E+00	0.00E+00	0.00E+00
	2100000000	-3.96E-01	-3.91E-02	-2.75E-01	2.01E-01	0.00E+00	0.00E+00	0.00E+00	0.00E+00
	2150000000	-1.89E-01	4.68E-01	-4.94E-01	6.18E-02	0.00E+00	0.00E+00	0.00E+00	0.00E+00
	2200000000	2.68E-01	4.81E-01	-5.95E-01	-5.37E-02	0.00E+00	0.00E+00	0.00E+00	0.00E+00
	2250000000	5.14E-01	1.76E-01	-6.31E-01	-1.65E-01	0.00E+00	0.00E+00	0.00E+00	0.00E+00
	2300000000	4.60E-01	-1.68E-01	-6.04E-01	-2.73E-01	0.00E+00	0.00E+00	0.00E+00	0.00E+00
	2350000000	2.05E-01	-3.51E-01	-5.34E-01	-3.80E-01	0.00E+00	0.00E+00	0.00E+00	0.00E+00
	2400000000	-8.22E-02	-3.11E-01	-4.48E-01	-4.75E-01	0.00E+00	0.00E+00	0.00E+00	0.00E+00
	2450000000	-2.39E-01	-7.68E-02	-3.58E-01	-5.34E-01	0.00E+00	0.00E+00	0.00E+00	0.00E+00
	2500000000	-1.22E-01	1.35E-01	-2.89E-01	-5.06E-01	0.00E+00	0.00E+00	0.00E+00	0.00E+00
	2550000000	-1.52E-01	1.32E-01	-2.93E-02	-3.41E-01	0.00E+00	0.00E+00	0.00E+00	0.00E+00
	2600000000	4.33E-02	3.68E-01	2.23E-01	-3.98E-01	0.00E+00	0.00E+00	0.00E+00	0.00E+00
	2650000000	3.33E-01	2.60E-01	3.67E-01	-3.76E-01	0.00E+00	0.00E+00	0.00E+00	0.00E+00
	2700000000	4.03E-01	-1.26E-02	4.91E-01	-2.95E-01	0.00E+00	0.00E+00	0.00E+00	0.00E+00
	2750000000	2.53E-01	-2.13E-01	5.99E-01	-1.88E-01	0.00E+00	0.00E+00	0.00E+00	0.00E+00
	2800000000	4.16E-02	-2.17E-01	6.83E-01	-6.72E-02	0.00E+00	0.00E+00	0.00E+00	0.00E+00
	2850000000	-6.48E-02	-9.47E-02	7.31E-01	5.52E-02	0.00E+00	0.00E+00	0.00E+00	0.00E+00
	2900000000	-4.62E-02	3.18E-02	7.12E-01	1.82E-01	0.00E+00	0.00E+00	0.00E+00	0.00E+00
	2950000000	1.52E-02	7.63E-02	6.37E-01	3.54E-01	0.00E+00	0.00E+00	0.00E+00	0.00E+00
	3000000000	1.04E-01	1.26E-01	5.93E-01	5.10E-01	0.00E+00	0.00E+00	0.00E+00	0.00E+00
	3050000000	2.16E-01	6.45E-02	4.94E-01	6.24E-01	0.00E+00	0.00E+00	0.00E+00	0.00E+00
	3100000000	2.31E-01	-6.43E-02	3.60E-01	7.32E-01	0.00E+00	0.00E+00	0.00E+00	0.00E+00
	3150000000	1.39E-01	-1.42E-01	2.30E-01	8.17E-01	0.00E+00	0.00E+00	0.00E+00	0.00E+00
	3200000000	4.26E-02	-1.10E-01	9.12E-02	8.43E-01	0.00E+00	0.00E+00	0.00E+00	0.00E+00
	3250000000	2.55E-02	-3.25E-02	-7.08E-02	8.31E-01	0.00E+00	0.00E+00	0.00E+00	0.00E+00
	3300000000	6.13E-02	9.91E-03	-2.33E-01	7.98E-01	0.00E+00	0.00E+00	0.00E+00	0.00E+00
	3350000000	9.15E-02	1.49E-02	-3.76E-01	7.33E-01	0.00E+00	0.00E+00	0.00E+00	0.00E+00
	3400000000	9.44E-02	2.95E-02	-4.93E-01	6.49E-01	0.00E+00	0.00E+00	0.00E+00	0.00E+00
	3450000000	1.83E-01	9.60E-02	-5.13E-01	5.09E-01	0.00E+00	0.00E+00	0.00E+00	0.00E+00
	3500000000	2.76E-01	-8.22E-03	-5.78E-01	2.73E-01	0.00E+00	0.00E+00	0.00E+00	0.00E+00
	3550000000	2.65E-01	-1.53E-01	-6.52E-01	2.70E-02	0.00E+00	0.00E+00	0.00E+00	0.00E+00
	3600000000	1.45E-01	-1.94E-01	-7.22E-01	-1.44E-01	0.00E+00	0.00E+00	0.00E+00	0.00E+00
	3650000000	7.60E-02	-1.68E-01	-7.13E-01	-3.01E-01	0.00E+00	0.00E+00	0.00E+00	0.00E+00
	3700000000	2.51E-02	-1.33E-01	-6.58E-01	-4.74E-01	0.00E+00	0.00E+00	0.00E+00	0.00E+00
	3750000000	-1.19E-02	-6.31E-02	-5.87E-01	-6.24E-01	0.00E+00	0.00E+00	0.00E+00	0.00E+00
	3800000000	1.66E-02	1.96E-02	-4.77E-01	-7.24E-01	0.00E+00	0.00E+00	0.00E+00	0.00E+00
	3850000000	8.03E-02	3.82E-02	-3.11E-01	-7.99E-01	0.00E+00	0.00E+00	0.00E+00	0.00E+00
	3900000000	9.60E-02	3.68E-02	-1.34E-01	-8.59E-01	0.00E+00	0.00E+00	0.00E+00	0.00E+00
	3950000000	1.36E-01	8.76E-02	3.21E-02	-8.57E-01	0.00E+00	0.00E+00	0.00E+00	0.00E+00
	4000000000	2.75E-01	8.34E-02	2.38E-01	-8.07E-01	0.00E+00	0.00E+00	0.00E+00	0.00E+00
	4050000000	3.82E-01	-8.08E-02	4.43E-01	-7.56E-01	0.00E+00	0.00E+00	0.00E+00	0.00E+00
	4100000000	3.07E-01	-2.96E-01	5.87E-01	-6.80E-01	0.00E+00	0.00E+00	0.00E+00	0.00E+00
	4150000000	8.82E-02	-3.77E-01	7.15E-01	-5.34E-01	0.00E+00	0.00E+00	0.00E+00	0.00E+00
	4200000000	-9.15E-02	-2.74E-01	8.46E-01	-3.77E-01	0.00E+00	0.00E+00	0.00E+00	0.00E+00
	4250000000	-1.35E-01	-1.36E-01	9.09E-01	-2.33E-01	0.00E+00	0.00E+00	0.00E+00	0.00E+00
	4300000000	-1.52E-01	-3.19E-02	9.11E-01	-4.64E-02	0.00E+00	0.00E+00	0.00E+00	0.00E+00
	4350000000	-1.22E-01	1.41E-01	8.93E-01	1.34E-01	0.00E+00	0.00E+00	0.00E+00	0.00E+00
	4400000000	9.45E-02	2.83E-01	8.15E-01	3.01E-01	0.00E+00	0.00E+00	0.00E+00	0.00E+00
	4450000000	3.82E-01	1.73E-01	6.86E-01	4.75E-01	0.00E+00	0.00E+00	0.00E+00	0.00E+00
	4500000000	4.69E-01	-1.21E-01	5.52E-01	6.33E-01	0.00E+00	0.00E+00	0.00E+00	0.00E+00
	4550000000	3.14E-01	-3.45E-01	3.81E-01	7.42E-01	0.00E+00	0.00E+00	0.00E+00	0.00E+00
	4600000000	1.06E-01	-3.52E-01	1.79E-01	8.32E-01	0.00E+00	0.00E+00	0.00E+00	0.00E+00
	4650000000	3.46E-02	-3.01E-01	-1.79E-02	8.72E-01	0.00E+00	0.00E+00	0.00E+00	0.00E+00
	4700000000	-6.85E-02	-2.41E-01	-2.50E-01	8.80E-01	0.00E+00	0.00E+00	0.00E+00	0.00E+00
	4750000000	-1.11E-01	-1.65E-01	-4.33E-01	8.15E-01	0.00E+00	0.00E+00	0.00E+00	0.00E+00
	4800000000	-1.33E-01	4.30E-03	-6.91E-01	7.30E-01	0.00E+00	0.00E+00	0.00E+00	0.00E+00
	4850000000	5.62E-02	1.37E-01	-9.27E-01	7.08E-01	0.00E+00	0.00E+00	0.00E+00	0.00E+00
	4900000000	2.51E-01	7.54E-03	-1.04E+00	6.64E-01	0.00E+00	0.00E+00	0.00E+00	0.00E+00
	4950000000	1.96E-01	-1.89E-01	-1.05E+00	5.35E-01	0.00E+00	0.00E+00	0.00E+00	0.00E+00
	5000000000	1.86E-02	-1.64E-01	-1.07E+00	3.45E-01	0.00E+00	0.00E+00	0.00E+00	0.00E+00
	5050000000	4.89E-02	1.02E-02	-1.08E+00	6.07E-02	0.00E+00	0.00E+00	0.00E+00	0.00E+00
	5100000000	2.49E-01	-1.91E-02	-1.08E+00	-3.84E-02	0.00E+00	0.00E+00	0.00E+00	0.00E+00
	5150000000	2.70E-01	-2.41E-01	-9.90E-01	-2.08E-01	0.00E+00	0.00E+00	0.00E+00	0.00E+00
	5200000000	6.90E-02	-3.46E-01	-8.71E-01	-3.78E-01	0.00E+00	0.00E+00	0.00E+00	0.00E+00
	5250000000	-7.51E-02	-2.32E-01	-7.40E-01	-5.51E-01	0.00E+00	0.00E+00	0.00E+00	0.00E+00
	5300000000	-3.74E-02	-1.44E-01	-5.96E-01	-6.88E-01	0.00E+00	0.00E+00	0.00E+00	0.00E+00
	5350000000	-5.71E-02	-1.85E-01	-4.49E-01	-7.45E-01	0.00E+00	0.00E+00	0.00E+00	0.00E+00
	5400000000	-1.61E-01	-1.11E-01	-2.32E-01	-7.99E-01	0.00E+00	0.00E+00	0.00E+00	0.00E+00
	5450000000	-1.01E-01	7.30E-02	-5.51E-02	-8.45E-01	0.00E+00	0.00E+00	0.00E+00	0.00E+00
	5500000000	1.23E-01	6.74E-02	7.84E-02	-8.05E-01	0.00E+00	0.00E+00	0.00E+00	0.00E+00
	5550000000	1.84E-01	-1.28E-01	2.49E-01	-6.91E-01	0.00E+00	0.00E+00	0.00E+00	0.00E+00
	5600000000	4.62E-02	-2.02E-01	4.08E-01	-5.56E-01	0.00E+00	0.00E+00	0.00E+00	0.00E+00
	5650000000	3.71E-02	-1.35E-01	5.56E-01	-4.06E-01	0.00E+00	0.00E+00	0.00E+00	0.00E+00
	5700000000	8.75E-02	-1.42E-01	6.65E-01	-2.68E-01	0.00E+00	0.00E+00	0.00E+00	0.00E+00
	5750000000	1.23E-01	-2.29E-01	7.14E-01	-1.05E-01	0.00E+00	0.00E+00	0.00E+00	0.00E+00
	5800000000	5.28E-02	-3.23E-01	7.33E-01	6.21E-02	0.00E+00	0.00E+00	0.00E+00	0.00E+00
	5850000000	-6.43E-02	-3.16E-01	7.00E-01	2.29E-01	0.00E+00	0.00E+00	0.00E+00	0.00E+00
	5900000000	-8.38E-02	-2.21E-01	6.56E-01	3.97E-01	0.00E+00	0.00E+00	0.00E+00	0.00E+00
	5950000000	-1.57E-02	-2.31E-01	5.91E-01	5.05E-01	0.00E+00	0.00E+00	0.00E+00	0.00E+00
	6000000000	-1.24E-01	-2.72E-01	7.47E-01	4.83E-02	0.00E+00	0.00E+00	0.00E+00	0.00E+00
