! NanoVNA-App									
! Date: 2024-03-21 15:02:47									
! Start: 1GHz Stop: 6GHz Points: 101									
! S-Parameter data: F S11 S21 S12 S22									
# Hz S RI R 50									
!	Frequency	S11_Real	S11_Imag	S21_Real	S21_Imag	S12_Real	S12_Imag	S22_Real	S22_Imag
	1000000000	1.21E-01	-2.28E-02	-5.58E-01	-8.76E-01	0.00E+00	0.00E+00	0.00E+00	0.00E+00
	1050000000	5.21E-02	-2.18E-02	-3.77E-01	-9.63E-01	0.00E+00	0.00E+00	0.00E+00	0.00E+00
	1100000000	5.01E-02	-1.09E-02	-1.70E-01	-1.02E+00	0.00E+00	0.00E+00	0.00E+00	0.00E+00
	1150000000	3.01E-02	-4.72E-02	3.50E-02	-1.03E+00	0.00E+00	0.00E+00	0.00E+00	0.00E+00
	1200000000	-5.09E-02	-3.72E-02	2.40E-01	-9.91E-01	0.00E+00	0.00E+00	0.00E+00	0.00E+00
	1250000000	-7.88E-02	6.65E-02	4.47E-01	-9.11E-01	0.00E+00	0.00E+00	0.00E+00	0.00E+00
	1300000000	1.46E-02	1.35E-01	6.29E-01	-8.04E-01	0.00E+00	0.00E+00	0.00E+00	0.00E+00
	1350000000	1.01E-01	6.55E-02	7.70E-01	-6.57E-01	0.00E+00	0.00E+00	0.00E+00	0.00E+00
	1400000000	7.22E-02	5.50E-03	9.01E-01	-4.85E-01	0.00E+00	0.00E+00	0.00E+00	0.00E+00
	1450000000	1.75E-02	2.35E-02	9.74E-01	-3.03E-01	0.00E+00	0.00E+00	0.00E+00	0.00E+00
	1500000000	5.40E-02	6.50E-02	1.00E+00	-1.04E-01	0.00E+00	0.00E+00	0.00E+00	0.00E+00
	1550000000	9.73E-02	5.26E-03	9.92E-01	9.90E-02	0.00E+00	0.00E+00	0.00E+00	0.00E+00
	1600000000	1.38E-02	-5.90E-02	9.46E-01	2.88E-01	0.00E+00	0.00E+00	0.00E+00	0.00E+00
	1650000000	-9.38E-02	3.57E-02	8.60E-01	4.59E-01	0.00E+00	0.00E+00	0.00E+00	0.00E+00
	1700000000	-2.62E-02	1.95E-01	7.33E-01	6.04E-01	0.00E+00	0.00E+00	0.00E+00	0.00E+00
	1750000000	1.59E-01	1.97E-01	5.78E-01	7.36E-01	0.00E+00	0.00E+00	0.00E+00	0.00E+00
	1800000000	2.36E-01	4.23E-02	4.26E-01	8.45E-01	0.00E+00	0.00E+00	0.00E+00	0.00E+00
	1850000000	1.52E-01	-7.03E-02	2.72E-01	9.01E-01	0.00E+00	0.00E+00	0.00E+00	0.00E+00
	1900000000	6.60E-02	-5.36E-02	1.29E-01	9.17E-01	0.00E+00	0.00E+00	0.00E+00	0.00E+00
	1950000000	5.61E-02	-2.15E-02	9.21E-03	8.95E-01	0.00E+00	0.00E+00	0.00E+00	0.00E+00
	2000000000	7.74E-02	-2.38E-02	-4.62E-02	8.12E-01	0.00E+00	0.00E+00	0.00E+00	0.00E+00
	2050000000	5.90E-02	-1.95E-01	-3.63E-02	5.63E-01	0.00E+00	0.00E+00	0.00E+00	0.00E+00
	2100000000	-3.97E-01	-4.40E-02	-2.83E-01	2.03E-01	0.00E+00	0.00E+00	0.00E+00	0.00E+00
	2150000000	-1.98E-01	4.68E-01	-5.01E-01	6.83E-02	0.00E+00	0.00E+00	0.00E+00	0.00E+00
	2200000000	2.59E-01	4.86E-01	-6.04E-01	-4.97E-02	0.00E+00	0.00E+00	0.00E+00	0.00E+00
	2250000000	5.12E-01	1.84E-01	-6.43E-01	-1.58E-01	0.00E+00	0.00E+00	0.00E+00	0.00E+00
	2300000000	4.65E-01	-1.58E-01	-6.18E-01	-2.68E-01	0.00E+00	0.00E+00	0.00E+00	0.00E+00
	2350000000	2.19E-01	-3.49E-01	-5.53E-01	-3.75E-01	0.00E+00	0.00E+00	0.00E+00	0.00E+00
	2400000000	-7.03E-02	-3.20E-01	-4.66E-01	-4.70E-01	0.00E+00	0.00E+00	0.00E+00	0.00E+00
	2450000000	-2.41E-01	-9.57E-02	-3.80E-01	-5.32E-01	0.00E+00	0.00E+00	0.00E+00	0.00E+00
	2500000000	-1.38E-01	1.25E-01	-3.12E-01	-5.03E-01	0.00E+00	0.00E+00	0.00E+00	0.00E+00
	2550000000	-1.71E-01	1.39E-01	-4.95E-02	-3.46E-01	0.00E+00	0.00E+00	0.00E+00	0.00E+00
	2600000000	3.82E-02	3.84E-01	1.99E-01	-4.04E-01	0.00E+00	0.00E+00	0.00E+00	0.00E+00
	2650000000	3.43E-01	2.74E-01	3.42E-01	-3.84E-01	0.00E+00	0.00E+00	0.00E+00	0.00E+00
	2700000000	4.20E-01	-1.03E-02	4.69E-01	-3.04E-01	0.00E+00	0.00E+00	0.00E+00	0.00E+00
	2750000000	2.67E-01	-2.25E-01	5.78E-01	-1.99E-01	0.00E+00	0.00E+00	0.00E+00	0.00E+00
	2800000000	4.47E-02	-2.36E-01	6.63E-01	-7.51E-02	0.00E+00	0.00E+00	0.00E+00	0.00E+00
	2850000000	-8.11E-02	-1.07E-01	7.16E-01	4.14E-02	0.00E+00	0.00E+00	0.00E+00	0.00E+00
	2900000000	-6.38E-02	3.73E-02	7.00E-01	1.67E-01	0.00E+00	0.00E+00	0.00E+00	0.00E+00
	2950000000	1.09E-02	9.17E-02	6.27E-01	3.37E-01	0.00E+00	0.00E+00	0.00E+00	0.00E+00
	3000000000	1.13E-01	1.36E-01	5.85E-01	4.95E-01	0.00E+00	0.00E+00	0.00E+00	0.00E+00
	3050000000	2.27E-01	6.38E-02	4.91E-01	6.08E-01	0.00E+00	0.00E+00	0.00E+00	0.00E+00
	3100000000	2.38E-01	-7.02E-02	3.60E-01	7.20E-01	0.00E+00	0.00E+00	0.00E+00	0.00E+00
	3150000000	1.41E-01	-1.51E-01	2.37E-01	8.04E-01	0.00E+00	0.00E+00	0.00E+00	0.00E+00
	3200000000	3.85E-02	-1.17E-01	9.93E-02	8.32E-01	0.00E+00	0.00E+00	0.00E+00	0.00E+00
	3250000000	1.86E-02	-3.43E-02	-6.12E-02	8.22E-01	0.00E+00	0.00E+00	0.00E+00	0.00E+00
	3300000000	5.72E-02	1.34E-02	-2.18E-01	7.90E-01	0.00E+00	0.00E+00	0.00E+00	0.00E+00
	3350000000	9.29E-02	1.88E-02	-3.66E-01	7.27E-01	0.00E+00	0.00E+00	0.00E+00	0.00E+00
	3400000000	9.69E-02	3.01E-02	-4.78E-01	6.48E-01	0.00E+00	0.00E+00	0.00E+00	0.00E+00
	3450000000	1.86E-01	9.61E-02	-5.04E-01	5.06E-01	0.00E+00	0.00E+00	0.00E+00	0.00E+00
	3500000000	2.80E-01	-7.09E-03	-5.65E-01	2.80E-01	0.00E+00	0.00E+00	0.00E+00	0.00E+00
	3550000000	2.70E-01	-1.55E-01	-6.40E-01	3.29E-02	0.00E+00	0.00E+00	0.00E+00	0.00E+00
	3600000000	1.46E-01	-1.98E-01	-7.14E-01	-1.39E-01	0.00E+00	0.00E+00	0.00E+00	0.00E+00
	3650000000	7.47E-02	-1.70E-01	-7.06E-01	-2.97E-01	0.00E+00	0.00E+00	0.00E+00	0.00E+00
	3700000000	2.37E-02	-1.33E-01	-6.54E-01	-4.69E-01	0.00E+00	0.00E+00	0.00E+00	0.00E+00
	3750000000	-1.15E-02	-6.16E-02	-5.86E-01	-6.17E-01	0.00E+00	0.00E+00	0.00E+00	0.00E+00
	3800000000	1.74E-02	2.13E-02	-4.78E-01	-7.18E-01	0.00E+00	0.00E+00	0.00E+00	0.00E+00
	3850000000	7.93E-02	3.99E-02	-3.13E-01	-7.95E-01	0.00E+00	0.00E+00	0.00E+00	0.00E+00
	3900000000	9.73E-02	3.95E-02	-1.43E-01	-8.52E-01	0.00E+00	0.00E+00	0.00E+00	0.00E+00
	3950000000	1.39E-01	9.05E-02	2.72E-02	-8.52E-01	0.00E+00	0.00E+00	0.00E+00	0.00E+00
	4000000000	2.78E-01	8.24E-02	2.33E-01	-8.04E-01	0.00E+00	0.00E+00	0.00E+00	0.00E+00
	4050000000	3.82E-01	-8.49E-02	4.34E-01	-7.57E-01	0.00E+00	0.00E+00	0.00E+00	0.00E+00
	4100000000	3.04E-01	-2.98E-01	5.81E-01	-6.82E-01	0.00E+00	0.00E+00	0.00E+00	0.00E+00
	4150000000	8.43E-02	-3.77E-01	7.11E-01	-5.37E-01	0.00E+00	0.00E+00	0.00E+00	0.00E+00
	4200000000	-9.42E-02	-2.72E-01	8.43E-01	-3.82E-01	0.00E+00	0.00E+00	0.00E+00	0.00E+00
	4250000000	-1.36E-01	-1.34E-01	9.06E-01	-2.40E-01	0.00E+00	0.00E+00	0.00E+00	0.00E+00
	4300000000	-1.50E-01	-3.03E-02	9.07E-01	-5.56E-02	0.00E+00	0.00E+00	0.00E+00	0.00E+00
	4350000000	-1.21E-01	1.41E-01	8.93E-01	1.24E-01	0.00E+00	0.00E+00	0.00E+00	0.00E+00
	4400000000	9.60E-02	2.80E-01	8.16E-01	2.93E-01	0.00E+00	0.00E+00	0.00E+00	0.00E+00
	4450000000	3.81E-01	1.70E-01	6.87E-01	4.68E-01	0.00E+00	0.00E+00	0.00E+00	0.00E+00
	4500000000	4.67E-01	-1.23E-01	5.55E-01	6.28E-01	0.00E+00	0.00E+00	0.00E+00	0.00E+00
	4550000000	3.11E-01	-3.47E-01	3.86E-01	7.38E-01	0.00E+00	0.00E+00	0.00E+00	0.00E+00
	4600000000	1.04E-01	-3.51E-01	1.84E-01	8.29E-01	0.00E+00	0.00E+00	0.00E+00	0.00E+00
	4650000000	3.57E-02	-3.00E-01	-4.32E-03	8.69E-01	0.00E+00	0.00E+00	0.00E+00	0.00E+00
	4700000000	-6.55E-02	-2.42E-01	-2.37E-01	8.80E-01	0.00E+00	0.00E+00	0.00E+00	0.00E+00
	4750000000	-1.08E-01	-1.65E-01	-4.19E-01	8.18E-01	0.00E+00	0.00E+00	0.00E+00	0.00E+00
	4800000000	-1.29E-01	8.74E-04	-6.79E-01	7.39E-01	0.00E+00	0.00E+00	0.00E+00	0.00E+00
	4850000000	5.87E-02	1.32E-01	-9.14E-01	7.17E-01	0.00E+00	0.00E+00	0.00E+00	0.00E+00
	4900000000	2.51E-01	1.56E-03	-1.02E+00	6.78E-01	0.00E+00	0.00E+00	0.00E+00	0.00E+00
	4950000000	1.94E-01	-1.92E-01	-1.03E+00	5.50E-01	0.00E+00	0.00E+00	0.00E+00	0.00E+00
	5000000000	1.71E-02	-1.64E-01	-1.06E+00	3.61E-01	0.00E+00	0.00E+00	0.00E+00	0.00E+00
	5050000000	5.14E-02	1.29E-02	-1.08E+00	7.52E-02	0.00E+00	0.00E+00	0.00E+00	0.00E+00
	5100000000	2.54E-01	-1.94E-02	-1.08E+00	-2.33E-02	0.00E+00	0.00E+00	0.00E+00	0.00E+00
	5150000000	2.73E-01	-2.43E-01	-9.89E-01	-1.87E-01	0.00E+00	0.00E+00	0.00E+00	0.00E+00
	5200000000	7.32E-02	-3.48E-01	-8.71E-01	-3.62E-01	0.00E+00	0.00E+00	0.00E+00	0.00E+00
	5250000000	-7.43E-02	-2.33E-01	-7.45E-01	-5.33E-01	0.00E+00	0.00E+00	0.00E+00	0.00E+00
	5300000000	-3.57E-02	-1.47E-01	-6.06E-01	-6.73E-01	0.00E+00	0.00E+00	0.00E+00	0.00E+00
	5350000000	-5.57E-02	-1.88E-01	-4.58E-01	-7.34E-01	0.00E+00	0.00E+00	0.00E+00	0.00E+00
	5400000000	-1.61E-01	-1.10E-01	-2.47E-01	-7.90E-01	0.00E+00	0.00E+00	0.00E+00	0.00E+00
	5450000000	-9.81E-02	7.37E-02	-7.18E-02	-8.40E-01	0.00E+00	0.00E+00	0.00E+00	0.00E+00
	5500000000	1.26E-01	6.58E-02	6.28E-02	-8.03E-01	0.00E+00	0.00E+00	0.00E+00	0.00E+00
	5550000000	1.85E-01	-1.30E-01	2.32E-01	-6.91E-01	0.00E+00	0.00E+00	0.00E+00	0.00E+00
	5600000000	4.69E-02	-2.04E-01	3.92E-01	-5.61E-01	0.00E+00	0.00E+00	0.00E+00	0.00E+00
	5650000000	3.77E-02	-1.37E-01	5.45E-01	-4.14E-01	0.00E+00	0.00E+00	0.00E+00	0.00E+00
	5700000000	8.80E-02	-1.46E-01	6.55E-01	-2.79E-01	0.00E+00	0.00E+00	0.00E+00	0.00E+00
	5750000000	1.23E-01	-2.31E-01	7.07E-01	-1.18E-01	0.00E+00	0.00E+00	0.00E+00	0.00E+00
	5800000000	5.56E-02	-3.24E-01	7.29E-01	4.72E-02	0.00E+00	0.00E+00	0.00E+00	0.00E+00
	5850000000	-6.29E-02	-3.17E-01	7.01E-01	2.10E-01	0.00E+00	0.00E+00	0.00E+00	0.00E+00
	5900000000	-8.07E-02	-2.23E-01	6.60E-01	3.76E-01	0.00E+00	0.00E+00	0.00E+00	0.00E+00
	5950000000	-7.85E-03	-2.36E-01	5.95E-01	4.88E-01	0.00E+00	0.00E+00	0.00E+00	0.00E+00
	6000000000	-1.20E-01	-2.79E-01	7.40E-01	3.60E-02	0.00E+00	0.00E+00	0.00E+00	0.00E+00
