! NanoVNA-App									
! Date: 2024-03-21 13:01:46									
! Start: 1GHz Stop: 6GHz Points: 101									
! S-Parameter data: F S11 S21 S12 S22									
# Hz S RI R 50									
!	Frequency	S11_Real	S11_Imag	S21_Real	S21_Imag	S12_Real	S12_Imag	S22_Real	S22_Imag
	1000000000	1.22E-01	-2.33E-02	-5.55E-01	-8.77E-01	0.00E+00	0.00E+00	0.00E+00	0.00E+00
	1050000000	5.29E-02	-2.22E-02	-3.75E-01	-9.64E-01	0.00E+00	0.00E+00	0.00E+00	0.00E+00
	1100000000	5.04E-02	-1.09E-02	-1.68E-01	-1.02E+00	0.00E+00	0.00E+00	0.00E+00	0.00E+00
	1150000000	3.08E-02	-4.63E-02	3.89E-02	-1.03E+00	0.00E+00	0.00E+00	0.00E+00	0.00E+00
	1200000000	-4.96E-02	-3.66E-02	2.43E-01	-9.89E-01	0.00E+00	0.00E+00	0.00E+00	0.00E+00
	1250000000	-7.75E-02	6.66E-02	4.50E-01	-9.09E-01	0.00E+00	0.00E+00	0.00E+00	0.00E+00
	1300000000	1.56E-02	1.35E-01	6.31E-01	-8.01E-01	0.00E+00	0.00E+00	0.00E+00	0.00E+00
	1350000000	1.01E-01	6.59E-02	7.72E-01	-6.53E-01	0.00E+00	0.00E+00	0.00E+00	0.00E+00
	1400000000	7.38E-02	4.98E-03	9.02E-01	-4.82E-01	0.00E+00	0.00E+00	0.00E+00	0.00E+00
	1450000000	1.80E-02	2.25E-02	9.73E-01	-3.00E-01	0.00E+00	0.00E+00	0.00E+00	0.00E+00
	1500000000	5.31E-02	6.44E-02	1.00E+00	-1.02E-01	0.00E+00	0.00E+00	0.00E+00	0.00E+00
	1550000000	9.63E-02	6.34E-03	9.90E-01	1.01E-01	0.00E+00	0.00E+00	0.00E+00	0.00E+00
	1600000000	1.36E-02	-5.66E-02	9.43E-01	2.94E-01	0.00E+00	0.00E+00	0.00E+00	0.00E+00
	1650000000	-9.27E-02	3.81E-02	8.58E-01	4.65E-01	0.00E+00	0.00E+00	0.00E+00	0.00E+00
	1700000000	-2.37E-02	1.97E-01	7.29E-01	6.06E-01	0.00E+00	0.00E+00	0.00E+00	0.00E+00
	1750000000	1.62E-01	1.97E-01	5.72E-01	7.38E-01	0.00E+00	0.00E+00	0.00E+00	0.00E+00
	1800000000	2.37E-01	4.09E-02	4.22E-01	8.45E-01	0.00E+00	0.00E+00	0.00E+00	0.00E+00
	1850000000	1.52E-01	-7.30E-02	2.67E-01	8.99E-01	0.00E+00	0.00E+00	0.00E+00	0.00E+00
	1900000000	6.33E-02	-5.50E-02	1.21E-01	9.12E-01	0.00E+00	0.00E+00	0.00E+00	0.00E+00
	1950000000	5.26E-02	-1.97E-02	5.65E-03	8.92E-01	0.00E+00	0.00E+00	0.00E+00	0.00E+00
	2000000000	7.59E-02	-2.02E-02	-5.08E-02	8.10E-01	0.00E+00	0.00E+00	0.00E+00	0.00E+00
	2050000000	6.03E-02	-1.93E-01	-3.76E-02	5.65E-01	0.00E+00	0.00E+00	0.00E+00	0.00E+00
	2100000000	-3.95E-01	-4.09E-02	-2.80E-01	2.01E-01	0.00E+00	0.00E+00	0.00E+00	0.00E+00
	2150000000	-1.94E-01	4.68E-01	-4.98E-01	6.52E-02	0.00E+00	0.00E+00	0.00E+00	0.00E+00
	2200000000	2.64E-01	4.84E-01	-6.01E-01	-5.12E-02	0.00E+00	0.00E+00	0.00E+00	0.00E+00
	2250000000	5.13E-01	1.81E-01	-6.37E-01	-1.63E-01	0.00E+00	0.00E+00	0.00E+00	0.00E+00
	2300000000	4.63E-01	-1.62E-01	-6.10E-01	-2.71E-01	0.00E+00	0.00E+00	0.00E+00	0.00E+00
	2350000000	2.12E-01	-3.50E-01	-5.42E-01	-3.79E-01	0.00E+00	0.00E+00	0.00E+00	0.00E+00
	2400000000	-7.62E-02	-3.17E-01	-4.58E-01	-4.73E-01	0.00E+00	0.00E+00	0.00E+00	0.00E+00
	2450000000	-2.41E-01	-8.58E-02	-3.69E-01	-5.33E-01	0.00E+00	0.00E+00	0.00E+00	0.00E+00
	2500000000	-1.30E-01	1.30E-01	-3.01E-01	-5.03E-01	0.00E+00	0.00E+00	0.00E+00	0.00E+00
	2550000000	-1.62E-01	1.37E-01	-3.68E-02	-3.42E-01	0.00E+00	0.00E+00	0.00E+00	0.00E+00
	2600000000	4.15E-02	3.76E-01	2.12E-01	-4.00E-01	0.00E+00	0.00E+00	0.00E+00	0.00E+00
	2650000000	3.38E-01	2.66E-01	3.54E-01	-3.79E-01	0.00E+00	0.00E+00	0.00E+00	0.00E+00
	2700000000	4.12E-01	-1.61E-02	4.82E-01	-3.03E-01	0.00E+00	0.00E+00	0.00E+00	0.00E+00
	2750000000	2.60E-01	-2.19E-01	5.89E-01	-1.90E-01	0.00E+00	0.00E+00	0.00E+00	0.00E+00
	2800000000	4.43E-02	-2.29E-01	6.76E-01	-6.58E-02	0.00E+00	0.00E+00	0.00E+00	0.00E+00
	2850000000	-7.33E-02	-9.96E-02	7.22E-01	5.02E-02	0.00E+00	0.00E+00	0.00E+00	0.00E+00
	2900000000	-5.45E-02	3.50E-02	7.05E-01	1.76E-01	0.00E+00	0.00E+00	0.00E+00	0.00E+00
	2950000000	1.42E-02	8.43E-02	6.33E-01	3.51E-01	0.00E+00	0.00E+00	0.00E+00	0.00E+00
	3000000000	1.09E-01	1.31E-01	5.87E-01	5.03E-01	0.00E+00	0.00E+00	0.00E+00	0.00E+00
	3050000000	2.22E-01	6.38E-02	4.90E-01	6.18E-01	0.00E+00	0.00E+00	0.00E+00	0.00E+00
	3100000000	2.34E-01	-6.79E-02	3.56E-01	7.27E-01	0.00E+00	0.00E+00	0.00E+00	0.00E+00
	3150000000	1.38E-01	-1.47E-01	2.30E-01	8.12E-01	0.00E+00	0.00E+00	0.00E+00	0.00E+00
	3200000000	3.97E-02	-1.13E-01	9.21E-02	8.38E-01	0.00E+00	0.00E+00	0.00E+00	0.00E+00
	3250000000	2.19E-02	-3.28E-02	-7.01E-02	8.27E-01	0.00E+00	0.00E+00	0.00E+00	0.00E+00
	3300000000	5.93E-02	1.15E-02	-2.30E-01	7.95E-01	0.00E+00	0.00E+00	0.00E+00	0.00E+00
	3350000000	9.24E-02	1.70E-02	-3.75E-01	7.30E-01	0.00E+00	0.00E+00	0.00E+00	0.00E+00
	3400000000	9.65E-02	2.96E-02	-4.89E-01	6.47E-01	0.00E+00	0.00E+00	0.00E+00	0.00E+00
	3450000000	1.83E-01	9.63E-02	-5.13E-01	5.05E-01	0.00E+00	0.00E+00	0.00E+00	0.00E+00
	3500000000	2.77E-01	-8.24E-03	-5.73E-01	2.76E-01	0.00E+00	0.00E+00	0.00E+00	0.00E+00
	3550000000	2.68E-01	-1.55E-01	-6.46E-01	2.57E-02	0.00E+00	0.00E+00	0.00E+00	0.00E+00
	3600000000	1.44E-01	-1.96E-01	-7.18E-01	-1.47E-01	0.00E+00	0.00E+00	0.00E+00	0.00E+00
	3650000000	7.49E-02	-1.67E-01	-7.10E-01	-3.04E-01	0.00E+00	0.00E+00	0.00E+00	0.00E+00
	3700000000	2.56E-02	-1.32E-01	-6.56E-01	-4.74E-01	0.00E+00	0.00E+00	0.00E+00	0.00E+00
	3750000000	-1.07E-02	-6.36E-02	-5.85E-01	-6.26E-01	0.00E+00	0.00E+00	0.00E+00	0.00E+00
	3800000000	1.68E-02	1.79E-02	-4.76E-01	-7.25E-01	0.00E+00	0.00E+00	0.00E+00	0.00E+00
	3850000000	7.96E-02	3.79E-02	-3.10E-01	-8.00E-01	0.00E+00	0.00E+00	0.00E+00	0.00E+00
	3900000000	9.58E-02	3.85E-02	-1.36E-01	-8.59E-01	0.00E+00	0.00E+00	0.00E+00	0.00E+00
	3950000000	1.37E-01	8.94E-02	3.14E-02	-8.57E-01	0.00E+00	0.00E+00	0.00E+00	0.00E+00
	4000000000	2.76E-01	8.37E-02	2.37E-01	-8.06E-01	0.00E+00	0.00E+00	0.00E+00	0.00E+00
	4050000000	3.82E-01	-8.23E-02	4.41E-01	-7.57E-01	0.00E+00	0.00E+00	0.00E+00	0.00E+00
	4100000000	3.07E-01	-2.97E-01	5.87E-01	-6.80E-01	0.00E+00	0.00E+00	0.00E+00	0.00E+00
	4150000000	8.71E-02	-3.78E-01	7.15E-01	-5.33E-01	0.00E+00	0.00E+00	0.00E+00	0.00E+00
	4200000000	-9.39E-02	-2.73E-01	8.44E-01	-3.81E-01	0.00E+00	0.00E+00	0.00E+00	0.00E+00
	4250000000	-1.37E-01	-1.35E-01	9.08E-01	-2.33E-01	0.00E+00	0.00E+00	0.00E+00	0.00E+00
	4300000000	-1.52E-01	-3.06E-02	9.10E-01	-4.79E-02	0.00E+00	0.00E+00	0.00E+00	0.00E+00
	4350000000	-1.22E-01	1.41E-01	8.93E-01	1.34E-01	0.00E+00	0.00E+00	0.00E+00	0.00E+00
	4400000000	9.60E-02	2.81E-01	8.15E-01	2.99E-01	0.00E+00	0.00E+00	0.00E+00	0.00E+00
	4450000000	3.82E-01	1.72E-01	6.87E-01	4.72E-01	0.00E+00	0.00E+00	0.00E+00	0.00E+00
	4500000000	4.69E-01	-1.22E-01	5.53E-01	6.34E-01	0.00E+00	0.00E+00	0.00E+00	0.00E+00
	4550000000	3.13E-01	-3.46E-01	3.83E-01	7.40E-01	0.00E+00	0.00E+00	0.00E+00	0.00E+00
	4600000000	1.06E-01	-3.52E-01	1.80E-01	8.31E-01	0.00E+00	0.00E+00	0.00E+00	0.00E+00
	4650000000	3.39E-02	-3.02E-01	-1.49E-02	8.71E-01	0.00E+00	0.00E+00	0.00E+00	0.00E+00
	4700000000	-6.80E-02	-2.41E-01	-2.45E-01	8.82E-01	0.00E+00	0.00E+00	0.00E+00	0.00E+00
	4750000000	-1.10E-01	-1.65E-01	-4.30E-01	8.16E-01	0.00E+00	0.00E+00	0.00E+00	0.00E+00
	4800000000	-1.32E-01	2.04E-03	-6.90E-01	7.34E-01	0.00E+00	0.00E+00	0.00E+00	0.00E+00
	4850000000	5.73E-02	1.36E-01	-9.23E-01	7.12E-01	0.00E+00	0.00E+00	0.00E+00	0.00E+00
	4900000000	2.51E-01	5.96E-03	-1.03E+00	6.68E-01	0.00E+00	0.00E+00	0.00E+00	0.00E+00
	4950000000	1.95E-01	-1.90E-01	-1.04E+00	5.41E-01	0.00E+00	0.00E+00	0.00E+00	0.00E+00
	5000000000	1.76E-02	-1.65E-01	-1.06E+00	3.51E-01	0.00E+00	0.00E+00	0.00E+00	0.00E+00
	5050000000	4.85E-02	1.08E-02	-1.08E+00	6.65E-02	0.00E+00	0.00E+00	0.00E+00	0.00E+00
	5100000000	2.49E-01	-1.83E-02	-1.08E+00	-3.42E-02	0.00E+00	0.00E+00	0.00E+00	0.00E+00
	5150000000	2.72E-01	-2.41E-01	-9.91E-01	-2.05E-01	0.00E+00	0.00E+00	0.00E+00	0.00E+00
	5200000000	7.21E-02	-3.46E-01	-8.72E-01	-3.75E-01	0.00E+00	0.00E+00	0.00E+00	0.00E+00
	5250000000	-7.44E-02	-2.33E-01	-7.43E-01	-5.46E-01	0.00E+00	0.00E+00	0.00E+00	0.00E+00
	5300000000	-3.70E-02	-1.46E-01	-6.01E-01	-6.83E-01	0.00E+00	0.00E+00	0.00E+00	0.00E+00
	5350000000	-5.81E-02	-1.87E-01	-4.52E-01	-7.44E-01	0.00E+00	0.00E+00	0.00E+00	0.00E+00
	5400000000	-1.62E-01	-1.09E-01	-2.39E-01	-7.96E-01	0.00E+00	0.00E+00	0.00E+00	0.00E+00
	5450000000	-1.00E-01	7.37E-02	-6.06E-02	-8.45E-01	0.00E+00	0.00E+00	0.00E+00	0.00E+00
	5500000000	1.24E-01	6.71E-02	7.05E-02	-8.07E-01	0.00E+00	0.00E+00	0.00E+00	0.00E+00
	5550000000	1.83E-01	-1.29E-01	2.30E-01	-6.97E-01	0.00E+00	0.00E+00	0.00E+00	0.00E+00
	5600000000	4.52E-02	-2.02E-01	4.04E-01	-5.56E-01	0.00E+00	0.00E+00	0.00E+00	0.00E+00
	5650000000	3.74E-02	-1.34E-01	5.52E-01	-4.09E-01	0.00E+00	0.00E+00	0.00E+00	0.00E+00
	5700000000	8.81E-02	-1.44E-01	6.60E-01	-2.72E-01	0.00E+00	0.00E+00	0.00E+00	0.00E+00
	5750000000	1.22E-01	-2.30E-01	7.12E-01	-1.09E-01	0.00E+00	0.00E+00	0.00E+00	0.00E+00
	5800000000	5.41E-02	-3.23E-01	7.32E-01	5.76E-02	0.00E+00	0.00E+00	0.00E+00	0.00E+00
	5850000000	-6.37E-02	-3.16E-01	7.02E-01	2.21E-01	0.00E+00	0.00E+00	0.00E+00	0.00E+00
	5900000000	-8.39E-02	-2.21E-01	6.58E-01	3.88E-01	0.00E+00	0.00E+00	0.00E+00	0.00E+00
	5950000000	-1.26E-02	-2.32E-01	5.92E-01	5.00E-01	0.00E+00	0.00E+00	0.00E+00	0.00E+00
	6000000000	-1.24E-01	-2.73E-01	7.44E-01	4.82E-02	0.00E+00	0.00E+00	0.00E+00	0.00E+00
