! NanoVNA-App									
! Date: 2024-03-21 13:02:48									
! Start: 1GHz Stop: 6GHz Points: 101									
! S-Parameter data: F S11 S21 S12 S22									
# Hz S RI R 50									
!	Frequency	S11_Real	S11_Imag	S21_Real	S21_Imag	S12_Real	S12_Imag	S22_Real	S22_Imag
	1000000000	1.22E-01	-2.32E-02	-5.55E-01	-8.78E-01	0.00E+00	0.00E+00	0.00E+00	0.00E+00
	1050000000	5.29E-02	-2.25E-02	-3.74E-01	-9.65E-01	0.00E+00	0.00E+00	0.00E+00	0.00E+00
	1100000000	5.02E-02	-1.07E-02	-1.66E-01	-1.02E+00	0.00E+00	0.00E+00	0.00E+00	0.00E+00
	1150000000	3.09E-02	-4.64E-02	3.89E-02	-1.03E+00	0.00E+00	0.00E+00	0.00E+00	0.00E+00
	1200000000	-4.96E-02	-3.65E-02	2.45E-01	-9.89E-01	0.00E+00	0.00E+00	0.00E+00	0.00E+00
	1250000000	-7.75E-02	6.66E-02	4.50E-01	-9.09E-01	0.00E+00	0.00E+00	0.00E+00	0.00E+00
	1300000000	1.57E-02	1.35E-01	6.31E-01	-8.01E-01	0.00E+00	0.00E+00	0.00E+00	0.00E+00
	1350000000	1.01E-01	6.60E-02	7.72E-01	-6.53E-01	0.00E+00	0.00E+00	0.00E+00	0.00E+00
	1400000000	7.37E-02	5.12E-03	9.01E-01	-4.81E-01	0.00E+00	0.00E+00	0.00E+00	0.00E+00
	1450000000	1.81E-02	2.24E-02	9.73E-01	-3.00E-01	0.00E+00	0.00E+00	0.00E+00	0.00E+00
	1500000000	5.30E-02	6.42E-02	1.00E+00	-1.01E-01	0.00E+00	0.00E+00	0.00E+00	0.00E+00
	1550000000	9.61E-02	6.39E-03	9.90E-01	1.02E-01	0.00E+00	0.00E+00	0.00E+00	0.00E+00
	1600000000	1.34E-02	-5.63E-02	9.43E-01	2.95E-01	0.00E+00	0.00E+00	0.00E+00	0.00E+00
	1650000000	-9.23E-02	3.87E-02	8.58E-01	4.62E-01	0.00E+00	0.00E+00	0.00E+00	0.00E+00
	1700000000	-2.29E-02	1.97E-01	7.29E-01	6.06E-01	0.00E+00	0.00E+00	0.00E+00	0.00E+00
	1750000000	1.62E-01	1.97E-01	5.73E-01	7.37E-01	0.00E+00	0.00E+00	0.00E+00	0.00E+00
	1800000000	2.38E-01	4.03E-02	4.21E-01	8.45E-01	0.00E+00	0.00E+00	0.00E+00	0.00E+00
	1850000000	1.52E-01	-7.32E-02	2.68E-01	9.00E-01	0.00E+00	0.00E+00	0.00E+00	0.00E+00
	1900000000	6.30E-02	-5.50E-02	1.23E-01	9.12E-01	0.00E+00	0.00E+00	0.00E+00	0.00E+00
	1950000000	5.27E-02	-1.95E-02	5.98E-03	8.91E-01	0.00E+00	0.00E+00	0.00E+00	0.00E+00
	2000000000	7.62E-02	-2.02E-02	-5.09E-02	8.10E-01	0.00E+00	0.00E+00	0.00E+00	0.00E+00
	2050000000	6.10E-02	-1.92E-01	-3.95E-02	5.63E-01	0.00E+00	0.00E+00	0.00E+00	0.00E+00
	2100000000	-3.95E-01	-4.16E-02	-2.81E-01	2.01E-01	0.00E+00	0.00E+00	0.00E+00	0.00E+00
	2150000000	-1.94E-01	4.68E-01	-4.98E-01	6.36E-02	0.00E+00	0.00E+00	0.00E+00	0.00E+00
	2200000000	2.64E-01	4.84E-01	-6.00E-01	-5.09E-02	0.00E+00	0.00E+00	0.00E+00	0.00E+00
	2250000000	5.13E-01	1.81E-01	-6.36E-01	-1.62E-01	0.00E+00	0.00E+00	0.00E+00	0.00E+00
	2300000000	4.63E-01	-1.63E-01	-6.11E-01	-2.69E-01	0.00E+00	0.00E+00	0.00E+00	0.00E+00
	2350000000	2.12E-01	-3.48E-01	-5.41E-01	-3.78E-01	0.00E+00	0.00E+00	0.00E+00	0.00E+00
	2400000000	-7.61E-02	-3.17E-01	-4.56E-01	-4.74E-01	0.00E+00	0.00E+00	0.00E+00	0.00E+00
	2450000000	-2.41E-01	-8.53E-02	-3.68E-01	-5.33E-01	0.00E+00	0.00E+00	0.00E+00	0.00E+00
	2500000000	-1.30E-01	1.31E-01	-3.01E-01	-5.03E-01	0.00E+00	0.00E+00	0.00E+00	0.00E+00
	2550000000	-1.61E-01	1.38E-01	-3.66E-02	-3.41E-01	0.00E+00	0.00E+00	0.00E+00	0.00E+00
	2600000000	4.25E-02	3.76E-01	2.12E-01	-4.00E-01	0.00E+00	0.00E+00	0.00E+00	0.00E+00
	2650000000	3.38E-01	2.66E-01	3.57E-01	-3.78E-01	0.00E+00	0.00E+00	0.00E+00	0.00E+00
	2700000000	4.11E-01	-1.24E-02	4.81E-01	-2.97E-01	0.00E+00	0.00E+00	0.00E+00	0.00E+00
	2750000000	2.59E-01	-2.21E-01	5.90E-01	-1.91E-01	0.00E+00	0.00E+00	0.00E+00	0.00E+00
	2800000000	4.01E-02	-2.26E-01	6.73E-01	-7.01E-02	0.00E+00	0.00E+00	0.00E+00	0.00E+00
	2850000000	-7.40E-02	-9.88E-02	7.22E-01	5.22E-02	0.00E+00	0.00E+00	0.00E+00	0.00E+00
	2900000000	-5.43E-02	3.60E-02	7.04E-01	1.76E-01	0.00E+00	0.00E+00	0.00E+00	0.00E+00
	2950000000	1.50E-02	8.46E-02	6.33E-01	3.51E-01	0.00E+00	0.00E+00	0.00E+00	0.00E+00
	3000000000	1.10E-01	1.30E-01	5.87E-01	5.04E-01	0.00E+00	0.00E+00	0.00E+00	0.00E+00
	3050000000	2.22E-01	6.22E-02	4.90E-01	6.18E-01	0.00E+00	0.00E+00	0.00E+00	0.00E+00
	3100000000	2.34E-01	-6.92E-02	3.56E-01	7.28E-01	0.00E+00	0.00E+00	0.00E+00	0.00E+00
	3150000000	1.38E-01	-1.48E-01	2.28E-01	8.13E-01	0.00E+00	0.00E+00	0.00E+00	0.00E+00
	3200000000	3.90E-02	-1.13E-01	9.06E-02	8.39E-01	0.00E+00	0.00E+00	0.00E+00	0.00E+00
	3250000000	2.18E-02	-3.18E-02	-7.07E-02	8.28E-01	0.00E+00	0.00E+00	0.00E+00	0.00E+00
	3300000000	5.95E-02	1.26E-02	-2.31E-01	7.94E-01	0.00E+00	0.00E+00	0.00E+00	0.00E+00
	3350000000	9.33E-02	1.71E-02	-3.77E-01	7.30E-01	0.00E+00	0.00E+00	0.00E+00	0.00E+00
	3400000000	9.66E-02	2.94E-02	-4.89E-01	6.48E-01	0.00E+00	0.00E+00	0.00E+00	0.00E+00
	3450000000	1.84E-01	9.56E-02	-5.13E-01	5.05E-01	0.00E+00	0.00E+00	0.00E+00	0.00E+00
	3500000000	2.78E-01	-9.03E-03	-5.74E-01	2.75E-01	0.00E+00	0.00E+00	0.00E+00	0.00E+00
	3550000000	2.67E-01	-1.56E-01	-6.47E-01	2.29E-02	0.00E+00	0.00E+00	0.00E+00	0.00E+00
	3600000000	1.41E-01	-1.96E-01	-7.20E-01	-1.46E-01	0.00E+00	0.00E+00	0.00E+00	0.00E+00
	3650000000	7.38E-02	-1.64E-01	-7.11E-01	-3.06E-01	0.00E+00	0.00E+00	0.00E+00	0.00E+00
	3700000000	2.68E-02	-1.30E-01	-6.59E-01	-4.76E-01	0.00E+00	0.00E+00	0.00E+00	0.00E+00
	3750000000	-8.22E-03	-6.30E-02	-5.87E-01	-6.27E-01	0.00E+00	0.00E+00	0.00E+00	0.00E+00
	3800000000	1.78E-02	1.78E-02	-4.77E-01	-7.28E-01	0.00E+00	0.00E+00	0.00E+00	0.00E+00
	3850000000	7.90E-02	3.62E-02	-3.11E-01	-8.02E-01	0.00E+00	0.00E+00	0.00E+00	0.00E+00
	3900000000	9.45E-02	3.65E-02	-1.37E-01	-8.61E-01	0.00E+00	0.00E+00	0.00E+00	0.00E+00
	3950000000	1.35E-01	9.01E-02	2.85E-02	-8.59E-01	0.00E+00	0.00E+00	0.00E+00	0.00E+00
	4000000000	2.76E-01	8.56E-02	2.36E-01	-8.07E-01	0.00E+00	0.00E+00	0.00E+00	0.00E+00
	4050000000	3.83E-01	-8.05E-02	4.42E-01	-7.57E-01	0.00E+00	0.00E+00	0.00E+00	0.00E+00
	4100000000	3.08E-01	-2.97E-01	5.83E-01	-6.84E-01	0.00E+00	0.00E+00	0.00E+00	0.00E+00
	4150000000	8.78E-02	-3.79E-01	7.15E-01	-5.34E-01	0.00E+00	0.00E+00	0.00E+00	0.00E+00
	4200000000	-9.22E-02	-2.75E-01	8.46E-01	-3.77E-01	0.00E+00	0.00E+00	0.00E+00	0.00E+00
	4250000000	-1.36E-01	-1.35E-01	9.08E-01	-2.34E-01	0.00E+00	0.00E+00	0.00E+00	0.00E+00
	4300000000	-1.51E-01	-3.07E-02	9.09E-01	-5.08E-02	0.00E+00	0.00E+00	0.00E+00	0.00E+00
	4350000000	-1.22E-01	1.41E-01	8.93E-01	1.32E-01	0.00E+00	0.00E+00	0.00E+00	0.00E+00
	4400000000	9.58E-02	2.82E-01	8.15E-01	2.99E-01	0.00E+00	0.00E+00	0.00E+00	0.00E+00
	4450000000	3.81E-01	1.73E-01	6.87E-01	4.73E-01	0.00E+00	0.00E+00	0.00E+00	0.00E+00
	4500000000	4.69E-01	-1.21E-01	5.51E-01	6.33E-01	0.00E+00	0.00E+00	0.00E+00	0.00E+00
	4550000000	3.13E-01	-3.46E-01	3.84E-01	7.40E-01	0.00E+00	0.00E+00	0.00E+00	0.00E+00
	4600000000	1.06E-01	-3.53E-01	1.78E-01	8.31E-01	0.00E+00	0.00E+00	0.00E+00	0.00E+00
	4650000000	3.49E-02	-3.02E-01	-1.68E-02	8.71E-01	0.00E+00	0.00E+00	0.00E+00	0.00E+00
	4700000000	-6.84E-02	-2.41E-01	-2.46E-01	8.81E-01	0.00E+00	0.00E+00	0.00E+00	0.00E+00
	4750000000	-1.10E-01	-1.65E-01	-4.32E-01	8.16E-01	0.00E+00	0.00E+00	0.00E+00	0.00E+00
	4800000000	-1.32E-01	4.45E-03	-6.87E-01	7.33E-01	0.00E+00	0.00E+00	0.00E+00	0.00E+00
	4850000000	5.66E-02	1.36E-01	-9.29E-01	7.06E-01	0.00E+00	0.00E+00	0.00E+00	0.00E+00
	4900000000	2.52E-01	6.43E-03	-1.03E+00	6.68E-01	0.00E+00	0.00E+00	0.00E+00	0.00E+00
	4950000000	1.96E-01	-1.90E-01	-1.04E+00	5.42E-01	0.00E+00	0.00E+00	0.00E+00	0.00E+00
	5000000000	1.81E-02	-1.65E-01	-1.06E+00	3.51E-01	0.00E+00	0.00E+00	0.00E+00	0.00E+00
	5050000000	4.86E-02	1.04E-02	-1.08E+00	6.23E-02	0.00E+00	0.00E+00	0.00E+00	0.00E+00
	5100000000	2.50E-01	-1.85E-02	-1.08E+00	-3.55E-02	0.00E+00	0.00E+00	0.00E+00	0.00E+00
	5150000000	2.71E-01	-2.40E-01	-9.91E-01	-2.02E-01	0.00E+00	0.00E+00	0.00E+00	0.00E+00
	5200000000	7.04E-02	-3.46E-01	-8.72E-01	-3.74E-01	0.00E+00	0.00E+00	0.00E+00	0.00E+00
	5250000000	-7.55E-02	-2.33E-01	-7.42E-01	-5.47E-01	0.00E+00	0.00E+00	0.00E+00	0.00E+00
	5300000000	-3.67E-02	-1.45E-01	-6.00E-01	-6.85E-01	0.00E+00	0.00E+00	0.00E+00	0.00E+00
	5350000000	-5.58E-02	-1.86E-01	-4.49E-01	-7.44E-01	0.00E+00	0.00E+00	0.00E+00	0.00E+00
	5400000000	-1.64E-01	-1.08E-01	-2.40E-01	-7.97E-01	0.00E+00	0.00E+00	0.00E+00	0.00E+00
	5450000000	-1.01E-01	7.46E-02	-6.39E-02	-8.44E-01	0.00E+00	0.00E+00	0.00E+00	0.00E+00
	5500000000	1.24E-01	6.74E-02	7.25E-02	-8.07E-01	0.00E+00	0.00E+00	0.00E+00	0.00E+00
	5550000000	1.85E-01	-1.30E-01	2.46E-01	-6.91E-01	0.00E+00	0.00E+00	0.00E+00	0.00E+00
	5600000000	4.30E-02	-2.02E-01	4.00E-01	-5.59E-01	0.00E+00	0.00E+00	0.00E+00	0.00E+00
	5650000000	3.63E-02	-1.35E-01	5.53E-01	-4.08E-01	0.00E+00	0.00E+00	0.00E+00	0.00E+00
	5700000000	8.68E-02	-1.44E-01	6.61E-01	-2.72E-01	0.00E+00	0.00E+00	0.00E+00	0.00E+00
	5750000000	1.24E-01	-2.30E-01	7.12E-01	-1.08E-01	0.00E+00	0.00E+00	0.00E+00	0.00E+00
	5800000000	5.71E-02	-3.22E-01	7.31E-01	6.08E-02	0.00E+00	0.00E+00	0.00E+00	0.00E+00
	5850000000	-6.45E-02	-3.16E-01	7.01E-01	2.23E-01	0.00E+00	0.00E+00	0.00E+00	0.00E+00
	5900000000	-7.97E-02	-2.22E-01	6.56E-01	3.91E-01	0.00E+00	0.00E+00	0.00E+00	0.00E+00
	5950000000	-1.45E-02	-2.33E-01	5.92E-01	4.99E-01	0.00E+00	0.00E+00	0.00E+00	0.00E+00
	6000000000	-1.24E-01	-2.73E-01	7.43E-01	4.51E-02	0.00E+00	0.00E+00	0.00E+00	0.00E+00
