! NanoVNA-App									
! Date: 2024-03-21 14:40:56									
! Start: 1GHz Stop: 6GHz Points: 101									
! S-Parameter data: F S11 S21 S12 S22									
# Hz S RI R 50									
!	Frequency	S11_Real	S11_Imag	S21_Real	S21_Imag	S12_Real	S12_Imag	S22_Real	S22_Imag
	1000000000	1.21E-01	-2.29E-02	-5.57E-01	-8.77E-01	0.00E+00	0.00E+00	0.00E+00	0.00E+00
	1050000000	5.22E-02	-2.20E-02	-3.75E-01	-9.65E-01	0.00E+00	0.00E+00	0.00E+00	0.00E+00
	1100000000	5.00E-02	-1.09E-02	-1.71E-01	-1.02E+00	0.00E+00	0.00E+00	0.00E+00	0.00E+00
	1150000000	3.02E-02	-4.69E-02	3.51E-02	-1.03E+00	0.00E+00	0.00E+00	0.00E+00	0.00E+00
	1200000000	-5.05E-02	-3.69E-02	2.42E-01	-9.90E-01	0.00E+00	0.00E+00	0.00E+00	0.00E+00
	1250000000	-7.83E-02	6.65E-02	4.48E-01	-9.11E-01	0.00E+00	0.00E+00	0.00E+00	0.00E+00
	1300000000	1.50E-02	1.35E-01	6.29E-01	-8.03E-01	0.00E+00	0.00E+00	0.00E+00	0.00E+00
	1350000000	1.01E-01	6.59E-02	7.70E-01	-6.56E-01	0.00E+00	0.00E+00	0.00E+00	0.00E+00
	1400000000	7.29E-02	4.77E-03	9.00E-01	-4.84E-01	0.00E+00	0.00E+00	0.00E+00	0.00E+00
	1450000000	1.77E-02	2.28E-02	9.74E-01	-3.02E-01	0.00E+00	0.00E+00	0.00E+00	0.00E+00
	1500000000	5.32E-02	6.44E-02	1.00E+00	-1.04E-01	0.00E+00	0.00E+00	0.00E+00	0.00E+00
	1550000000	9.65E-02	5.92E-03	9.91E-01	1.01E-01	0.00E+00	0.00E+00	0.00E+00	0.00E+00
	1600000000	1.38E-02	-5.78E-02	9.47E-01	2.91E-01	0.00E+00	0.00E+00	0.00E+00	0.00E+00
	1650000000	-9.32E-02	3.65E-02	8.61E-01	4.63E-01	0.00E+00	0.00E+00	0.00E+00	0.00E+00
	1700000000	-2.49E-02	1.96E-01	7.32E-01	6.04E-01	0.00E+00	0.00E+00	0.00E+00	0.00E+00
	1750000000	1.60E-01	1.97E-01	5.75E-01	7.37E-01	0.00E+00	0.00E+00	0.00E+00	0.00E+00
	1800000000	2.36E-01	4.20E-02	4.25E-01	8.45E-01	0.00E+00	0.00E+00	0.00E+00	0.00E+00
	1850000000	1.52E-01	-7.11E-02	2.70E-01	9.01E-01	0.00E+00	0.00E+00	0.00E+00	0.00E+00
	1900000000	6.51E-02	-5.39E-02	1.24E-01	9.14E-01	0.00E+00	0.00E+00	0.00E+00	0.00E+00
	1950000000	5.51E-02	-2.06E-02	8.51E-03	8.94E-01	0.00E+00	0.00E+00	0.00E+00	0.00E+00
	2000000000	7.67E-02	-2.27E-02	-5.01E-02	8.12E-01	0.00E+00	0.00E+00	0.00E+00	0.00E+00
	2050000000	5.99E-02	-1.94E-01	-3.66E-02	5.69E-01	0.00E+00	0.00E+00	0.00E+00	0.00E+00
	2100000000	-3.98E-01	-4.65E-02	-2.79E-01	2.05E-01	0.00E+00	0.00E+00	0.00E+00	0.00E+00
	2150000000	-1.98E-01	4.67E-01	-5.00E-01	6.78E-02	0.00E+00	0.00E+00	0.00E+00	0.00E+00
	2200000000	2.59E-01	4.85E-01	-6.03E-01	-4.91E-02	0.00E+00	0.00E+00	0.00E+00	0.00E+00
	2250000000	5.11E-01	1.85E-01	-6.42E-01	-1.60E-01	0.00E+00	0.00E+00	0.00E+00	0.00E+00
	2300000000	4.65E-01	-1.58E-01	-6.17E-01	-2.68E-01	0.00E+00	0.00E+00	0.00E+00	0.00E+00
	2350000000	2.19E-01	-3.48E-01	-5.50E-01	-3.77E-01	0.00E+00	0.00E+00	0.00E+00	0.00E+00
	2400000000	-7.00E-02	-3.22E-01	-4.67E-01	-4.72E-01	0.00E+00	0.00E+00	0.00E+00	0.00E+00
	2450000000	-2.42E-01	-9.50E-02	-3.79E-01	-5.33E-01	0.00E+00	0.00E+00	0.00E+00	0.00E+00
	2500000000	-1.38E-01	1.27E-01	-3.14E-01	-5.05E-01	0.00E+00	0.00E+00	0.00E+00	0.00E+00
	2550000000	-1.69E-01	1.40E-01	-4.80E-02	-3.43E-01	0.00E+00	0.00E+00	0.00E+00	0.00E+00
	2600000000	3.93E-02	3.84E-01	2.01E-01	-4.02E-01	0.00E+00	0.00E+00	0.00E+00	0.00E+00
	2650000000	3.43E-01	2.72E-01	3.43E-01	-3.82E-01	0.00E+00	0.00E+00	0.00E+00	0.00E+00
	2700000000	4.20E-01	-1.29E-02	4.71E-01	-3.03E-01	0.00E+00	0.00E+00	0.00E+00	0.00E+00
	2750000000	2.66E-01	-2.25E-01	5.79E-01	-1.96E-01	0.00E+00	0.00E+00	0.00E+00	0.00E+00
	2800000000	4.52E-02	-2.38E-01	6.66E-01	-7.03E-02	0.00E+00	0.00E+00	0.00E+00	0.00E+00
	2850000000	-8.05E-02	-1.04E-01	7.14E-01	4.39E-02	0.00E+00	0.00E+00	0.00E+00	0.00E+00
	2900000000	-6.28E-02	3.81E-02	6.98E-01	1.69E-01	0.00E+00	0.00E+00	0.00E+00	0.00E+00
	2950000000	1.08E-02	9.19E-02	6.23E-01	3.37E-01	0.00E+00	0.00E+00	0.00E+00	0.00E+00
	3000000000	1.13E-01	1.36E-01	5.84E-01	4.94E-01	0.00E+00	0.00E+00	0.00E+00	0.00E+00
	3050000000	2.27E-01	6.37E-02	4.88E-01	6.09E-01	0.00E+00	0.00E+00	0.00E+00	0.00E+00
	3100000000	2.38E-01	-7.15E-02	3.57E-01	7.21E-01	0.00E+00	0.00E+00	0.00E+00	0.00E+00
	3150000000	1.39E-01	-1.52E-01	2.32E-01	8.06E-01	0.00E+00	0.00E+00	0.00E+00	0.00E+00
	3200000000	3.72E-02	-1.17E-01	9.42E-02	8.33E-01	0.00E+00	0.00E+00	0.00E+00	0.00E+00
	3250000000	1.82E-02	-3.29E-02	-6.63E-02	8.23E-01	0.00E+00	0.00E+00	0.00E+00	0.00E+00
	3300000000	5.78E-02	1.49E-02	-2.26E-01	7.89E-01	0.00E+00	0.00E+00	0.00E+00	0.00E+00
	3350000000	9.39E-02	1.89E-02	-3.69E-01	7.27E-01	0.00E+00	0.00E+00	0.00E+00	0.00E+00
	3400000000	9.78E-02	2.92E-02	-4.81E-01	6.48E-01	0.00E+00	0.00E+00	0.00E+00	0.00E+00
	3450000000	1.85E-01	9.64E-02	-5.05E-01	5.08E-01	0.00E+00	0.00E+00	0.00E+00	0.00E+00
	3500000000	2.81E-01	-7.95E-03	-5.66E-01	2.76E-01	0.00E+00	0.00E+00	0.00E+00	0.00E+00
	3550000000	2.69E-01	-1.57E-01	-6.40E-01	2.81E-02	0.00E+00	0.00E+00	0.00E+00	0.00E+00
	3600000000	1.43E-01	-1.99E-01	-7.15E-01	-1.46E-01	0.00E+00	0.00E+00	0.00E+00	0.00E+00
	3650000000	7.30E-02	-1.67E-01	-7.08E-01	-3.00E-01	0.00E+00	0.00E+00	0.00E+00	0.00E+00
	3700000000	2.48E-02	-1.30E-01	-6.55E-01	-4.73E-01	0.00E+00	0.00E+00	0.00E+00	0.00E+00
	3750000000	-9.64E-03	-6.15E-02	-5.86E-01	-6.22E-01	0.00E+00	0.00E+00	0.00E+00	0.00E+00
	3800000000	1.92E-02	1.92E-02	-4.80E-01	-7.21E-01	0.00E+00	0.00E+00	0.00E+00	0.00E+00
	3850000000	8.01E-02	3.67E-02	-3.15E-01	-7.97E-01	0.00E+00	0.00E+00	0.00E+00	0.00E+00
	3900000000	9.49E-02	3.83E-02	-1.40E-01	-8.56E-01	0.00E+00	0.00E+00	0.00E+00	0.00E+00
	3950000000	1.37E-01	9.05E-02	2.57E-02	-8.54E-01	0.00E+00	0.00E+00	0.00E+00	0.00E+00
	4000000000	2.78E-01	8.39E-02	2.34E-01	-8.05E-01	0.00E+00	0.00E+00	0.00E+00	0.00E+00
	4050000000	3.82E-01	-8.23E-02	4.39E-01	-7.55E-01	0.00E+00	0.00E+00	0.00E+00	0.00E+00
	4100000000	3.05E-01	-2.98E-01	5.81E-01	-6.82E-01	0.00E+00	0.00E+00	0.00E+00	0.00E+00
	4150000000	8.58E-02	-3.78E-01	7.12E-01	-5.35E-01	0.00E+00	0.00E+00	0.00E+00	0.00E+00
	4200000000	-9.37E-02	-2.73E-01	8.42E-01	-3.82E-01	0.00E+00	0.00E+00	0.00E+00	0.00E+00
	4250000000	-1.36E-01	-1.34E-01	9.06E-01	-2.39E-01	0.00E+00	0.00E+00	0.00E+00	0.00E+00
	4300000000	-1.51E-01	-3.00E-02	9.08E-01	-5.41E-02	0.00E+00	0.00E+00	0.00E+00	0.00E+00
	4350000000	-1.22E-01	1.40E-01	8.92E-01	1.29E-01	0.00E+00	0.00E+00	0.00E+00	0.00E+00
	4400000000	9.51E-02	2.80E-01	8.16E-01	2.93E-01	0.00E+00	0.00E+00	0.00E+00	0.00E+00
	4450000000	3.81E-01	1.70E-01	6.88E-01	4.66E-01	0.00E+00	0.00E+00	0.00E+00	0.00E+00
	4500000000	4.67E-01	-1.22E-01	5.54E-01	6.31E-01	0.00E+00	0.00E+00	0.00E+00	0.00E+00
	4550000000	3.11E-01	-3.46E-01	3.86E-01	7.39E-01	0.00E+00	0.00E+00	0.00E+00	0.00E+00
	4600000000	1.05E-01	-3.52E-01	1.83E-01	8.30E-01	0.00E+00	0.00E+00	0.00E+00	0.00E+00
	4650000000	3.58E-02	-3.02E-01	-9.76E-03	8.69E-01	0.00E+00	0.00E+00	0.00E+00	0.00E+00
	4700000000	-6.75E-02	-2.41E-01	-2.39E-01	8.82E-01	0.00E+00	0.00E+00	0.00E+00	0.00E+00
	4750000000	-1.09E-01	-1.66E-01	-4.24E-01	8.17E-01	0.00E+00	0.00E+00	0.00E+00	0.00E+00
	4800000000	-1.31E-01	1.70E-03	-6.83E-01	7.36E-01	0.00E+00	0.00E+00	0.00E+00	0.00E+00
	4850000000	5.83E-02	1.34E-01	-9.20E-01	7.12E-01	0.00E+00	0.00E+00	0.00E+00	0.00E+00
	4900000000	2.52E-01	3.30E-03	-1.03E+00	6.77E-01	0.00E+00	0.00E+00	0.00E+00	0.00E+00
	4950000000	1.94E-01	-1.92E-01	-1.04E+00	5.45E-01	0.00E+00	0.00E+00	0.00E+00	0.00E+00
	5000000000	1.67E-02	-1.65E-01	-1.06E+00	3.58E-01	0.00E+00	0.00E+00	0.00E+00	0.00E+00
	5050000000	4.99E-02	1.16E-02	-1.08E+00	7.23E-02	0.00E+00	0.00E+00	0.00E+00	0.00E+00
	5100000000	2.51E-01	-1.86E-02	-1.08E+00	-1.94E-02	0.00E+00	0.00E+00	0.00E+00	0.00E+00
	5150000000	2.73E-01	-2.41E-01	-9.89E-01	-1.95E-01	0.00E+00	0.00E+00	0.00E+00	0.00E+00
	5200000000	7.09E-02	-3.46E-01	-8.73E-01	-3.65E-01	0.00E+00	0.00E+00	0.00E+00	0.00E+00
	5250000000	-7.28E-02	-2.34E-01	-7.47E-01	-5.37E-01	0.00E+00	0.00E+00	0.00E+00	0.00E+00
	5300000000	-3.53E-02	-1.48E-01	-6.04E-01	-6.77E-01	0.00E+00	0.00E+00	0.00E+00	0.00E+00
	5350000000	-5.86E-02	-1.87E-01	-4.58E-01	-7.35E-01	0.00E+00	0.00E+00	0.00E+00	0.00E+00
	5400000000	-1.62E-01	-1.12E-01	-2.41E-01	-7.94E-01	0.00E+00	0.00E+00	0.00E+00	0.00E+00
	5450000000	-9.90E-02	7.43E-02	-6.95E-02	-8.41E-01	0.00E+00	0.00E+00	0.00E+00	0.00E+00
	5500000000	1.26E-01	6.73E-02	6.26E-02	-8.03E-01	0.00E+00	0.00E+00	0.00E+00	0.00E+00
	5550000000	1.84E-01	-1.31E-01	2.33E-01	-6.93E-01	0.00E+00	0.00E+00	0.00E+00	0.00E+00
	5600000000	4.55E-02	-2.03E-01	3.94E-01	-5.60E-01	0.00E+00	0.00E+00	0.00E+00	0.00E+00
	5650000000	3.80E-02	-1.36E-01	5.45E-01	-4.13E-01	0.00E+00	0.00E+00	0.00E+00	0.00E+00
	5700000000	8.99E-02	-1.46E-01	6.56E-01	-2.77E-01	0.00E+00	0.00E+00	0.00E+00	0.00E+00
	5750000000	1.23E-01	-2.31E-01	7.08E-01	-1.16E-01	0.00E+00	0.00E+00	0.00E+00	0.00E+00
	5800000000	5.37E-02	-3.24E-01	7.30E-01	4.93E-02	0.00E+00	0.00E+00	0.00E+00	0.00E+00
	5850000000	-6.35E-02	-3.16E-01	7.02E-01	2.13E-01	0.00E+00	0.00E+00	0.00E+00	0.00E+00
	5900000000	-7.80E-02	-2.21E-01	6.57E-01	3.83E-01	0.00E+00	0.00E+00	0.00E+00	0.00E+00
	5950000000	-9.43E-03	-2.35E-01	5.94E-01	4.91E-01	0.00E+00	0.00E+00	0.00E+00	0.00E+00
	6000000000	-1.22E-01	-2.77E-01	7.40E-01	3.65E-02	0.00E+00	0.00E+00	0.00E+00	0.00E+00
