! NanoVNA-App									
! Date: 2024-03-21 12:44:17									
! Start: 1GHz Stop: 6GHz Points: 101									
! S-Parameter data: F S11 S21 S12 S22									
# Hz S RI R 50									
!	Frequency	S11_Real	S11_Imag	S21_Real	S21_Imag	S12_Real	S12_Imag	S22_Real	S22_Imag
	1000000000	1.22E-01	-2.34E-02	-5.54E-01	-8.78E-01	0.00E+00	0.00E+00	0.00E+00	0.00E+00
	1050000000	5.28E-02	-2.24E-02	-3.74E-01	-9.65E-01	0.00E+00	0.00E+00	0.00E+00	0.00E+00
	1100000000	5.02E-02	-1.09E-02	-1.67E-01	-1.02E+00	0.00E+00	0.00E+00	0.00E+00	0.00E+00
	1150000000	3.07E-02	-4.62E-02	3.87E-02	-1.03E+00	0.00E+00	0.00E+00	0.00E+00	0.00E+00
	1200000000	-4.97E-02	-3.62E-02	2.45E-01	-9.88E-01	0.00E+00	0.00E+00	0.00E+00	0.00E+00
	1250000000	-7.73E-02	6.71E-02	4.50E-01	-9.09E-01	0.00E+00	0.00E+00	0.00E+00	0.00E+00
	1300000000	1.62E-02	1.36E-01	6.31E-01	-8.00E-01	0.00E+00	0.00E+00	0.00E+00	0.00E+00
	1350000000	1.02E-01	6.57E-02	7.71E-01	-6.53E-01	0.00E+00	0.00E+00	0.00E+00	0.00E+00
	1400000000	7.40E-02	4.76E-03	9.03E-01	-4.82E-01	0.00E+00	0.00E+00	0.00E+00	0.00E+00
	1450000000	1.81E-02	2.21E-02	9.74E-01	-2.99E-01	0.00E+00	0.00E+00	0.00E+00	0.00E+00
	1500000000	5.25E-02	6.41E-02	1.00E+00	-1.01E-01	0.00E+00	0.00E+00	0.00E+00	0.00E+00
	1550000000	9.54E-02	6.60E-03	9.90E-01	1.02E-01	0.00E+00	0.00E+00	0.00E+00	0.00E+00
	1600000000	1.28E-02	-5.56E-02	9.45E-01	2.95E-01	0.00E+00	0.00E+00	0.00E+00	0.00E+00
	1650000000	-9.26E-02	3.96E-02	8.57E-01	4.62E-01	0.00E+00	0.00E+00	0.00E+00	0.00E+00
	1700000000	-2.24E-02	1.98E-01	7.29E-01	6.04E-01	0.00E+00	0.00E+00	0.00E+00	0.00E+00
	1750000000	1.63E-01	1.97E-01	5.72E-01	7.36E-01	0.00E+00	0.00E+00	0.00E+00	0.00E+00
	1800000000	2.39E-01	3.99E-02	4.21E-01	8.43E-01	0.00E+00	0.00E+00	0.00E+00	0.00E+00
	1850000000	1.52E-01	-7.50E-02	2.66E-01	8.99E-01	0.00E+00	0.00E+00	0.00E+00	0.00E+00
	1900000000	6.16E-02	-5.68E-02	1.21E-01	9.10E-01	0.00E+00	0.00E+00	0.00E+00	0.00E+00
	1950000000	5.01E-02	-1.95E-02	7.29E-03	8.89E-01	0.00E+00	0.00E+00	0.00E+00	0.00E+00
	2000000000	7.42E-02	-1.82E-02	-5.12E-02	8.07E-01	0.00E+00	0.00E+00	0.00E+00	0.00E+00
	2050000000	6.10E-02	-1.90E-01	-3.61E-02	5.64E-01	0.00E+00	0.00E+00	0.00E+00	0.00E+00
	2100000000	-3.97E-01	-4.18E-02	-2.77E-01	2.01E-01	0.00E+00	0.00E+00	0.00E+00	0.00E+00
	2150000000	-1.92E-01	4.69E-01	-4.96E-01	6.33E-02	0.00E+00	0.00E+00	0.00E+00	0.00E+00
	2200000000	2.66E-01	4.83E-01	-5.97E-01	-5.29E-02	0.00E+00	0.00E+00	0.00E+00	0.00E+00
	2250000000	5.14E-01	1.78E-01	-6.32E-01	-1.64E-01	0.00E+00	0.00E+00	0.00E+00	0.00E+00
	2300000000	4.62E-01	-1.66E-01	-6.06E-01	-2.71E-01	0.00E+00	0.00E+00	0.00E+00	0.00E+00
	2350000000	2.08E-01	-3.51E-01	-5.36E-01	-3.79E-01	0.00E+00	0.00E+00	0.00E+00	0.00E+00
	2400000000	-8.21E-02	-3.12E-01	-4.51E-01	-4.71E-01	0.00E+00	0.00E+00	0.00E+00	0.00E+00
	2450000000	-2.41E-01	-7.87E-02	-3.62E-01	-5.33E-01	0.00E+00	0.00E+00	0.00E+00	0.00E+00
	2500000000	-1.24E-01	1.34E-01	-2.96E-01	-5.00E-01	0.00E+00	0.00E+00	0.00E+00	0.00E+00
	2550000000	-1.55E-01	1.35E-01	-2.90E-02	-3.39E-01	0.00E+00	0.00E+00	0.00E+00	0.00E+00
	2600000000	4.52E-02	3.70E-01	2.20E-01	-3.98E-01	0.00E+00	0.00E+00	0.00E+00	0.00E+00
	2650000000	3.35E-01	2.60E-01	3.64E-01	-3.76E-01	0.00E+00	0.00E+00	0.00E+00	0.00E+00
	2700000000	4.06E-01	-1.73E-02	4.90E-01	-3.00E-01	0.00E+00	0.00E+00	0.00E+00	0.00E+00
	2750000000	2.54E-01	-2.17E-01	5.96E-01	-1.89E-01	0.00E+00	0.00E+00	0.00E+00	0.00E+00
	2800000000	4.43E-02	-2.22E-01	6.80E-01	-6.02E-02	0.00E+00	0.00E+00	0.00E+00	0.00E+00
	2850000000	-6.79E-02	-9.44E-02	7.27E-01	5.69E-02	0.00E+00	0.00E+00	0.00E+00	0.00E+00
	2900000000	-4.79E-02	3.38E-02	7.09E-01	1.82E-01	0.00E+00	0.00E+00	0.00E+00	0.00E+00
	2950000000	1.70E-02	7.85E-02	6.37E-01	3.56E-01	0.00E+00	0.00E+00	0.00E+00	0.00E+00
	3000000000	1.06E-01	1.26E-01	5.90E-01	5.08E-01	0.00E+00	0.00E+00	0.00E+00	0.00E+00
	3050000000	2.18E-01	6.23E-02	4.92E-01	6.22E-01	0.00E+00	0.00E+00	0.00E+00	0.00E+00
	3100000000	2.31E-01	-6.61E-02	3.56E-01	7.33E-01	0.00E+00	0.00E+00	0.00E+00	0.00E+00
	3150000000	1.38E-01	-1.44E-01	2.29E-01	8.17E-01	0.00E+00	0.00E+00	0.00E+00	0.00E+00
	3200000000	4.07E-02	-1.11E-01	9.09E-02	8.42E-01	0.00E+00	0.00E+00	0.00E+00	0.00E+00
	3250000000	2.41E-02	-3.18E-02	-7.20E-02	8.31E-01	0.00E+00	0.00E+00	0.00E+00	0.00E+00
	3300000000	6.10E-02	1.19E-02	-2.35E-01	7.95E-01	0.00E+00	0.00E+00	0.00E+00	0.00E+00
	3350000000	9.30E-02	1.58E-02	-3.79E-01	7.31E-01	0.00E+00	0.00E+00	0.00E+00	0.00E+00
	3400000000	9.67E-02	2.86E-02	-4.90E-01	6.50E-01	0.00E+00	0.00E+00	0.00E+00	0.00E+00
	3450000000	1.84E-01	9.46E-02	-5.14E-01	5.06E-01	0.00E+00	0.00E+00	0.00E+00	0.00E+00
	3500000000	2.77E-01	-9.85E-03	-5.78E-01	2.72E-01	0.00E+00	0.00E+00	0.00E+00	0.00E+00
	3550000000	2.65E-01	-1.56E-01	-6.53E-01	2.24E-02	0.00E+00	0.00E+00	0.00E+00	0.00E+00
	3600000000	1.41E-01	-1.94E-01	-7.25E-01	-1.48E-01	0.00E+00	0.00E+00	0.00E+00	0.00E+00
	3650000000	7.57E-02	-1.64E-01	-7.16E-01	-3.05E-01	0.00E+00	0.00E+00	0.00E+00	0.00E+00
	3700000000	2.76E-02	-1.30E-01	-6.59E-01	-4.80E-01	0.00E+00	0.00E+00	0.00E+00	0.00E+00
	3750000000	-8.20E-03	-6.39E-02	-5.90E-01	-6.28E-01	0.00E+00	0.00E+00	0.00E+00	0.00E+00
	3800000000	1.82E-02	1.68E-02	-4.81E-01	-7.27E-01	0.00E+00	0.00E+00	0.00E+00	0.00E+00
	3850000000	7.94E-02	3.54E-02	-3.14E-01	-8.02E-01	0.00E+00	0.00E+00	0.00E+00	0.00E+00
	3900000000	9.46E-02	3.64E-02	-1.40E-01	-8.61E-01	0.00E+00	0.00E+00	0.00E+00	0.00E+00
	3950000000	1.35E-01	9.02E-02	2.79E-02	-8.59E-01	0.00E+00	0.00E+00	0.00E+00	0.00E+00
	4000000000	2.76E-01	8.60E-02	2.37E-01	-8.10E-01	0.00E+00	0.00E+00	0.00E+00	0.00E+00
	4050000000	3.84E-01	-8.13E-02	4.39E-01	-7.60E-01	0.00E+00	0.00E+00	0.00E+00	0.00E+00
	4100000000	3.08E-01	-2.97E-01	5.87E-01	-6.82E-01	0.00E+00	0.00E+00	0.00E+00	0.00E+00
	4150000000	8.78E-02	-3.79E-01	7.16E-01	-5.36E-01	0.00E+00	0.00E+00	0.00E+00	0.00E+00
	4200000000	-9.32E-02	-2.73E-01	8.45E-01	-3.81E-01	0.00E+00	0.00E+00	0.00E+00	0.00E+00
	4250000000	-1.37E-01	-1.36E-01	9.10E-01	-2.34E-01	0.00E+00	0.00E+00	0.00E+00	0.00E+00
	4300000000	-1.52E-01	-3.12E-02	9.10E-01	-4.98E-02	0.00E+00	0.00E+00	0.00E+00	0.00E+00
	4350000000	-1.23E-01	1.41E-01	8.94E-01	1.34E-01	0.00E+00	0.00E+00	0.00E+00	0.00E+00
	4400000000	9.56E-02	2.83E-01	8.16E-01	2.99E-01	0.00E+00	0.00E+00	0.00E+00	0.00E+00
	4450000000	3.82E-01	1.73E-01	6.87E-01	4.72E-01	0.00E+00	0.00E+00	0.00E+00	0.00E+00
	4500000000	4.70E-01	-1.20E-01	5.50E-01	6.37E-01	0.00E+00	0.00E+00	0.00E+00	0.00E+00
	4550000000	3.14E-01	-3.45E-01	3.84E-01	7.41E-01	0.00E+00	0.00E+00	0.00E+00	0.00E+00
	4600000000	1.07E-01	-3.54E-01	1.80E-01	8.31E-01	0.00E+00	0.00E+00	0.00E+00	0.00E+00
	4650000000	3.24E-02	-3.03E-01	-1.58E-02	8.72E-01	0.00E+00	0.00E+00	0.00E+00	0.00E+00
	4700000000	-6.76E-02	-2.42E-01	-2.47E-01	8.82E-01	0.00E+00	0.00E+00	0.00E+00	0.00E+00
	4750000000	-1.12E-01	-1.64E-01	-4.30E-01	8.17E-01	0.00E+00	0.00E+00	0.00E+00	0.00E+00
	4800000000	-1.33E-01	4.21E-03	-6.92E-01	7.32E-01	0.00E+00	0.00E+00	0.00E+00	0.00E+00
	4850000000	5.72E-02	1.38E-01	-9.26E-01	7.10E-01	0.00E+00	0.00E+00	0.00E+00	0.00E+00
	4900000000	2.52E-01	7.29E-03	-1.03E+00	6.70E-01	0.00E+00	0.00E+00	0.00E+00	0.00E+00
	4950000000	1.96E-01	-1.90E-01	-1.05E+00	5.41E-01	0.00E+00	0.00E+00	0.00E+00	0.00E+00
	5000000000	1.81E-02	-1.66E-01	-1.07E+00	3.49E-01	0.00E+00	0.00E+00	0.00E+00	0.00E+00
	5050000000	4.77E-02	1.10E-02	-1.09E+00	6.60E-02	0.00E+00	0.00E+00	0.00E+00	0.00E+00
	5100000000	2.48E-01	-1.84E-02	-1.08E+00	-3.44E-02	0.00E+00	0.00E+00	0.00E+00	0.00E+00
	5150000000	2.72E-01	-2.41E-01	-9.91E-01	-2.07E-01	0.00E+00	0.00E+00	0.00E+00	0.00E+00
	5200000000	7.06E-02	-3.46E-01	-8.73E-01	-3.77E-01	0.00E+00	0.00E+00	0.00E+00	0.00E+00
	5250000000	-7.48E-02	-2.32E-01	-7.45E-01	-5.45E-01	0.00E+00	0.00E+00	0.00E+00	0.00E+00
	5300000000	-3.66E-02	-1.45E-01	-6.02E-01	-6.85E-01	0.00E+00	0.00E+00	0.00E+00	0.00E+00
	5350000000	-5.52E-02	-1.89E-01	-4.51E-01	-7.45E-01	0.00E+00	0.00E+00	0.00E+00	0.00E+00
	5400000000	-1.63E-01	-1.11E-01	-2.37E-01	-7.97E-01	0.00E+00	0.00E+00	0.00E+00	0.00E+00
	5450000000	-1.02E-01	7.58E-02	-6.00E-02	-8.45E-01	0.00E+00	0.00E+00	0.00E+00	0.00E+00
	5500000000	1.23E-01	6.80E-02	6.95E-02	-8.07E-01	0.00E+00	0.00E+00	0.00E+00	0.00E+00
	5550000000	1.82E-01	-1.28E-01	2.44E-01	-6.89E-01	0.00E+00	0.00E+00	0.00E+00	0.00E+00
	5600000000	4.73E-02	-2.02E-01	4.05E-01	-5.56E-01	0.00E+00	0.00E+00	0.00E+00	0.00E+00
	5650000000	3.79E-02	-1.35E-01	5.54E-01	-4.07E-01	0.00E+00	0.00E+00	0.00E+00	0.00E+00
	5700000000	8.65E-02	-1.44E-01	6.63E-01	-2.70E-01	0.00E+00	0.00E+00	0.00E+00	0.00E+00
	5750000000	1.24E-01	-2.29E-01	7.13E-01	-1.06E-01	0.00E+00	0.00E+00	0.00E+00	0.00E+00
	5800000000	5.45E-02	-3.24E-01	7.33E-01	5.90E-02	0.00E+00	0.00E+00	0.00E+00	0.00E+00
	5850000000	-6.55E-02	-3.17E-01	7.02E-01	2.23E-01	0.00E+00	0.00E+00	0.00E+00	0.00E+00
	5900000000	-8.47E-02	-2.21E-01	6.58E-01	3.89E-01	0.00E+00	0.00E+00	0.00E+00	0.00E+00
	5950000000	-1.40E-02	-2.32E-01	5.91E-01	5.02E-01	0.00E+00	0.00E+00	0.00E+00	0.00E+00
	6000000000	-1.24E-01	-2.73E-01	7.44E-01	4.59E-02	0.00E+00	0.00E+00	0.00E+00	0.00E+00
