! NanoVNA-App									
! Date: 2024-03-21 13:22:05									
! Start: 1GHz Stop: 6GHz Points: 101									
! S-Parameter data: F S11 S21 S12 S22									
# Hz S RI R 50									
!	Frequency	S11_Real	S11_Imag	S21_Real	S21_Imag	S12_Real	S12_Imag	S22_Real	S22_Imag
	1000000000	1.22E-01	-2.27E-02	-5.55E-01	-8.77E-01	0.00E+00	0.00E+00	0.00E+00	0.00E+00
	1050000000	5.25E-02	-2.17E-02	-3.75E-01	-9.63E-01	0.00E+00	0.00E+00	0.00E+00	0.00E+00
	1100000000	5.06E-02	-1.04E-02	-1.68E-01	-1.02E+00	0.00E+00	0.00E+00	0.00E+00	0.00E+00
	1150000000	3.12E-02	-4.67E-02	3.57E-02	-1.03E+00	0.00E+00	0.00E+00	0.00E+00	0.00E+00
	1200000000	-4.97E-02	-3.73E-02	2.43E-01	-9.89E-01	0.00E+00	0.00E+00	0.00E+00	0.00E+00
	1250000000	-7.82E-02	6.61E-02	4.48E-01	-9.10E-01	0.00E+00	0.00E+00	0.00E+00	0.00E+00
	1300000000	1.48E-02	1.35E-01	6.30E-01	-8.02E-01	0.00E+00	0.00E+00	0.00E+00	0.00E+00
	1350000000	1.01E-01	6.66E-02	7.72E-01	-6.55E-01	0.00E+00	0.00E+00	0.00E+00	0.00E+00
	1400000000	7.29E-02	5.08E-03	9.00E-01	-4.83E-01	0.00E+00	0.00E+00	0.00E+00	0.00E+00
	1450000000	1.74E-02	2.33E-02	9.74E-01	-3.00E-01	0.00E+00	0.00E+00	0.00E+00	0.00E+00
	1500000000	5.33E-02	6.58E-02	1.00E+00	-1.02E-01	0.00E+00	0.00E+00	0.00E+00	0.00E+00
	1550000000	9.82E-02	6.75E-03	9.92E-01	1.02E-01	0.00E+00	0.00E+00	0.00E+00	0.00E+00
	1600000000	1.55E-02	-5.81E-02	9.46E-01	2.95E-01	0.00E+00	0.00E+00	0.00E+00	0.00E+00
	1650000000	-9.27E-02	3.54E-02	8.59E-01	4.62E-01	0.00E+00	0.00E+00	0.00E+00	0.00E+00
	1700000000	-2.59E-02	1.95E-01	7.33E-01	6.06E-01	0.00E+00	0.00E+00	0.00E+00	0.00E+00
	1750000000	1.59E-01	1.97E-01	5.74E-01	7.40E-01	0.00E+00	0.00E+00	0.00E+00	0.00E+00
	1800000000	2.36E-01	4.21E-02	4.24E-01	8.48E-01	0.00E+00	0.00E+00	0.00E+00	0.00E+00
	1850000000	1.52E-01	-7.01E-02	2.68E-01	9.03E-01	0.00E+00	0.00E+00	0.00E+00	0.00E+00
	1900000000	6.55E-02	-5.21E-02	1.25E-01	9.19E-01	0.00E+00	0.00E+00	0.00E+00	0.00E+00
	1950000000	5.72E-02	-1.98E-02	7.14E-03	8.96E-01	0.00E+00	0.00E+00	0.00E+00	0.00E+00
	2000000000	7.84E-02	-2.40E-02	-5.10E-02	8.16E-01	0.00E+00	0.00E+00	0.00E+00	0.00E+00
	2050000000	6.19E-02	-1.94E-01	-4.19E-02	5.70E-01	0.00E+00	0.00E+00	0.00E+00	0.00E+00
	2100000000	-3.97E-01	-4.78E-02	-2.80E-01	2.07E-01	0.00E+00	0.00E+00	0.00E+00	0.00E+00
	2150000000	-2.01E-01	4.67E-01	-5.00E-01	6.78E-02	0.00E+00	0.00E+00	0.00E+00	0.00E+00
	2200000000	2.58E-01	4.89E-01	-6.05E-01	-4.95E-02	0.00E+00	0.00E+00	0.00E+00	0.00E+00
	2250000000	5.12E-01	1.88E-01	-6.44E-01	-1.62E-01	0.00E+00	0.00E+00	0.00E+00	0.00E+00
	2300000000	4.67E-01	-1.56E-01	-6.20E-01	-2.68E-01	0.00E+00	0.00E+00	0.00E+00	0.00E+00
	2350000000	2.22E-01	-3.46E-01	-5.52E-01	-3.78E-01	0.00E+00	0.00E+00	0.00E+00	0.00E+00
	2400000000	-6.69E-02	-3.24E-01	-4.69E-01	-4.73E-01	0.00E+00	0.00E+00	0.00E+00	0.00E+00
	2450000000	-2.42E-01	-1.00E-01	-3.80E-01	-5.34E-01	0.00E+00	0.00E+00	0.00E+00	0.00E+00
	2500000000	-1.43E-01	1.24E-01	-3.14E-01	-5.05E-01	0.00E+00	0.00E+00	0.00E+00	0.00E+00
	2550000000	-1.72E-01	1.42E-01	-5.43E-02	-3.45E-01	0.00E+00	0.00E+00	0.00E+00	0.00E+00
	2600000000	3.75E-02	3.87E-01	1.94E-01	-4.03E-01	0.00E+00	0.00E+00	0.00E+00	0.00E+00
	2650000000	3.45E-01	2.77E-01	3.40E-01	-3.84E-01	0.00E+00	0.00E+00	0.00E+00	0.00E+00
	2700000000	4.23E-01	-1.13E-02	4.64E-01	-3.04E-01	0.00E+00	0.00E+00	0.00E+00	0.00E+00
	2750000000	2.69E-01	-2.29E-01	5.74E-01	-2.00E-01	0.00E+00	0.00E+00	0.00E+00	0.00E+00
	2800000000	4.35E-02	-2.41E-01	6.58E-01	-7.61E-02	0.00E+00	0.00E+00	0.00E+00	0.00E+00
	2850000000	-8.51E-02	-1.09E-01	7.10E-01	4.29E-02	0.00E+00	0.00E+00	0.00E+00	0.00E+00
	2900000000	-6.82E-02	3.96E-02	6.94E-01	1.66E-01	0.00E+00	0.00E+00	0.00E+00	0.00E+00
	2950000000	9.18E-03	9.69E-02	6.18E-01	3.35E-01	0.00E+00	0.00E+00	0.00E+00	0.00E+00
	3000000000	1.15E-01	1.39E-01	5.78E-01	4.93E-01	0.00E+00	0.00E+00	0.00E+00	0.00E+00
	3050000000	2.31E-01	6.48E-02	4.82E-01	6.09E-01	0.00E+00	0.00E+00	0.00E+00	0.00E+00
	3100000000	2.41E-01	-7.24E-02	3.53E-01	7.17E-01	0.00E+00	0.00E+00	0.00E+00	0.00E+00
	3150000000	1.40E-01	-1.55E-01	2.26E-01	8.04E-01	0.00E+00	0.00E+00	0.00E+00	0.00E+00
	3200000000	3.52E-02	-1.19E-01	9.05E-02	8.31E-01	0.00E+00	0.00E+00	0.00E+00	0.00E+00
	3250000000	1.48E-02	-3.30E-02	-6.88E-02	8.21E-01	0.00E+00	0.00E+00	0.00E+00	0.00E+00
	3300000000	5.65E-02	1.69E-02	-2.31E-01	7.89E-01	0.00E+00	0.00E+00	0.00E+00	0.00E+00
	3350000000	9.44E-02	2.07E-02	-3.72E-01	7.26E-01	0.00E+00	0.00E+00	0.00E+00	0.00E+00
	3400000000	9.86E-02	2.94E-02	-4.84E-01	6.47E-01	0.00E+00	0.00E+00	0.00E+00	0.00E+00
	3450000000	1.84E-01	9.65E-02	-5.07E-01	5.08E-01	0.00E+00	0.00E+00	0.00E+00	0.00E+00
	3500000000	2.81E-01	-6.45E-03	-5.64E-01	2.77E-01	0.00E+00	0.00E+00	0.00E+00	0.00E+00
	3550000000	2.72E-01	-1.59E-01	-6.35E-01	2.34E-02	0.00E+00	0.00E+00	0.00E+00	0.00E+00
	3600000000	1.41E-01	-2.02E-01	-7.12E-01	-1.49E-01	0.00E+00	0.00E+00	0.00E+00	0.00E+00
	3650000000	6.94E-02	-1.67E-01	-7.06E-01	-3.05E-01	0.00E+00	0.00E+00	0.00E+00	0.00E+00
	3700000000	2.35E-02	-1.28E-01	-6.54E-01	-4.76E-01	0.00E+00	0.00E+00	0.00E+00	0.00E+00
	3750000000	-8.10E-03	-6.02E-02	-5.83E-01	-6.25E-01	0.00E+00	0.00E+00	0.00E+00	0.00E+00
	3800000000	2.05E-02	1.80E-02	-4.77E-01	-7.24E-01	0.00E+00	0.00E+00	0.00E+00	0.00E+00
	3850000000	7.98E-02	3.46E-02	-3.12E-01	-8.00E-01	0.00E+00	0.00E+00	0.00E+00	0.00E+00
	3900000000	9.39E-02	3.74E-02	-1.41E-01	-8.58E-01	0.00E+00	0.00E+00	0.00E+00	0.00E+00
	3950000000	1.36E-01	9.15E-02	2.75E-02	-8.56E-01	0.00E+00	0.00E+00	0.00E+00	0.00E+00
	4000000000	2.78E-01	8.50E-02	2.31E-01	-8.06E-01	0.00E+00	0.00E+00	0.00E+00	0.00E+00
	4050000000	3.84E-01	-8.37E-02	4.36E-01	-7.57E-01	0.00E+00	0.00E+00	0.00E+00	0.00E+00
	4100000000	3.07E-01	-2.99E-01	5.82E-01	-6.81E-01	0.00E+00	0.00E+00	0.00E+00	0.00E+00
	4150000000	8.52E-02	-3.79E-01	7.10E-01	-5.37E-01	0.00E+00	0.00E+00	0.00E+00	0.00E+00
	4200000000	-9.48E-02	-2.73E-01	8.41E-01	-3.80E-01	0.00E+00	0.00E+00	0.00E+00	0.00E+00
	4250000000	-1.38E-01	-1.34E-01	9.04E-01	-2.37E-01	0.00E+00	0.00E+00	0.00E+00	0.00E+00
	4300000000	-1.52E-01	-2.77E-02	9.05E-01	-5.36E-02	0.00E+00	0.00E+00	0.00E+00	0.00E+00
	4350000000	-1.21E-01	1.43E-01	8.89E-01	1.33E-01	0.00E+00	0.00E+00	0.00E+00	0.00E+00
	4400000000	9.80E-02	2.81E-01	8.12E-01	2.97E-01	0.00E+00	0.00E+00	0.00E+00	0.00E+00
	4450000000	3.83E-01	1.69E-01	6.85E-01	4.70E-01	0.00E+00	0.00E+00	0.00E+00	0.00E+00
	4500000000	4.68E-01	-1.24E-01	5.50E-01	6.32E-01	0.00E+00	0.00E+00	0.00E+00	0.00E+00
	4550000000	3.10E-01	-3.48E-01	3.87E-01	7.37E-01	0.00E+00	0.00E+00	0.00E+00	0.00E+00
	4600000000	1.03E-01	-3.51E-01	1.82E-01	8.31E-01	0.00E+00	0.00E+00	0.00E+00	0.00E+00
	4650000000	3.51E-02	-3.00E-01	-9.31E-03	8.70E-01	0.00E+00	0.00E+00	0.00E+00	0.00E+00
	4700000000	-6.75E-02	-2.41E-01	-2.40E-01	8.80E-01	0.00E+00	0.00E+00	0.00E+00	0.00E+00
	4750000000	-1.09E-01	-1.65E-01	-4.29E-01	8.15E-01	0.00E+00	0.00E+00	0.00E+00	0.00E+00
	4800000000	-1.30E-01	3.63E-03	-6.87E-01	7.34E-01	0.00E+00	0.00E+00	0.00E+00	0.00E+00
	4850000000	5.98E-02	1.35E-01	-9.20E-01	7.13E-01	0.00E+00	0.00E+00	0.00E+00	0.00E+00
	4900000000	2.52E-01	2.33E-03	-1.03E+00	6.75E-01	0.00E+00	0.00E+00	0.00E+00	0.00E+00
	4950000000	1.93E-01	-1.93E-01	-1.04E+00	5.43E-01	0.00E+00	0.00E+00	0.00E+00	0.00E+00
	5000000000	1.46E-02	-1.64E-01	-1.06E+00	3.56E-01	0.00E+00	0.00E+00	0.00E+00	0.00E+00
	5050000000	4.90E-02	1.31E-02	-1.08E+00	7.20E-02	0.00E+00	0.00E+00	0.00E+00	0.00E+00
	5100000000	2.51E-01	-1.78E-02	-1.08E+00	-2.52E-02	0.00E+00	0.00E+00	0.00E+00	0.00E+00
	5150000000	2.74E-01	-2.41E-01	-9.89E-01	-1.97E-01	0.00E+00	0.00E+00	0.00E+00	0.00E+00
	5200000000	7.16E-02	-3.46E-01	-8.73E-01	-3.67E-01	0.00E+00	0.00E+00	0.00E+00	0.00E+00
	5250000000	-7.42E-02	-2.32E-01	-7.45E-01	-5.39E-01	0.00E+00	0.00E+00	0.00E+00	0.00E+00
	5300000000	-3.54E-02	-1.48E-01	-6.01E-01	-6.81E-01	0.00E+00	0.00E+00	0.00E+00	0.00E+00
	5350000000	-5.79E-02	-1.90E-01	-4.55E-01	-7.40E-01	0.00E+00	0.00E+00	0.00E+00	0.00E+00
	5400000000	-1.63E-01	-1.11E-01	-2.38E-01	-7.95E-01	0.00E+00	0.00E+00	0.00E+00	0.00E+00
	5450000000	-1.01E-01	7.73E-02	-6.68E-02	-8.44E-01	0.00E+00	0.00E+00	0.00E+00	0.00E+00
	5500000000	1.26E-01	6.91E-02	6.26E-02	-8.06E-01	0.00E+00	0.00E+00	0.00E+00	0.00E+00
	5550000000	1.87E-01	-1.30E-01	2.35E-01	-6.91E-01	0.00E+00	0.00E+00	0.00E+00	0.00E+00
	5600000000	4.52E-02	-2.05E-01	3.95E-01	-5.61E-01	0.00E+00	0.00E+00	0.00E+00	0.00E+00
	5650000000	3.77E-02	-1.36E-01	5.47E-01	-4.11E-01	0.00E+00	0.00E+00	0.00E+00	0.00E+00
	5700000000	8.85E-02	-1.46E-01	6.57E-01	-2.73E-01	0.00E+00	0.00E+00	0.00E+00	0.00E+00
	5750000000	1.22E-01	-2.33E-01	7.08E-01	-1.16E-01	0.00E+00	0.00E+00	0.00E+00	0.00E+00
	5800000000	5.23E-02	-3.23E-01	7.30E-01	5.38E-02	0.00E+00	0.00E+00	0.00E+00	0.00E+00
	5850000000	-6.79E-02	-3.14E-01	7.02E-01	2.15E-01	0.00E+00	0.00E+00	0.00E+00	0.00E+00
	5900000000	-8.03E-02	-2.18E-01	6.58E-01	3.82E-01	0.00E+00	0.00E+00	0.00E+00	0.00E+00
	5950000000	-8.29E-03	-2.33E-01	5.92E-01	4.94E-01	0.00E+00	0.00E+00	0.00E+00	0.00E+00
	6000000000	-1.22E-01	-2.76E-01	7.41E-01	4.05E-02	0.00E+00	0.00E+00	0.00E+00	0.00E+00
