! NanoVNA-App									
! Date: 2024-03-21 18:09:35									
! Start: 1GHz Stop: 6GHz Points: 101									
! S-Parameter data: F S11 S21 S12 S22									
# Hz S RI R 50									
!	Frequency	S11_Real	S11_Imag	S21_Real	S21_Imag	S12_Real	S12_Imag	S22_Real	S22_Imag
	1000000000	1.20E-01	-2.22E-02	-5.58E-01	-8.75E-01	0.00E+00	0.00E+00	0.00E+00	0.00E+00
	1050000000	5.21E-02	-2.16E-02	-3.78E-01	-9.62E-01	0.00E+00	0.00E+00	0.00E+00	0.00E+00
	1100000000	5.00E-02	-1.16E-02	-1.72E-01	-1.02E+00	0.00E+00	0.00E+00	0.00E+00	0.00E+00
	1150000000	2.88E-02	-4.81E-02	3.33E-02	-1.03E+00	0.00E+00	0.00E+00	0.00E+00	0.00E+00
	1200000000	-5.27E-02	-3.73E-02	2.38E-01	-9.90E-01	0.00E+00	0.00E+00	0.00E+00	0.00E+00
	1250000000	-8.02E-02	6.69E-02	4.46E-01	-9.11E-01	0.00E+00	0.00E+00	0.00E+00	0.00E+00
	1300000000	1.35E-02	1.35E-01	6.27E-01	-8.05E-01	0.00E+00	0.00E+00	0.00E+00	0.00E+00
	1350000000	9.95E-02	6.66E-02	7.69E-01	-6.58E-01	0.00E+00	0.00E+00	0.00E+00	0.00E+00
	1400000000	7.20E-02	5.25E-03	9.00E-01	-4.88E-01	0.00E+00	0.00E+00	0.00E+00	0.00E+00
	1450000000	1.77E-02	2.34E-02	9.72E-01	-3.05E-01	0.00E+00	0.00E+00	0.00E+00	0.00E+00
	1500000000	5.42E-02	6.39E-02	1.00E+00	-1.06E-01	0.00E+00	0.00E+00	0.00E+00	0.00E+00
	1550000000	9.69E-02	3.84E-03	9.92E-01	9.68E-02	0.00E+00	0.00E+00	0.00E+00	0.00E+00
	1600000000	1.28E-02	-6.00E-02	9.48E-01	2.88E-01	0.00E+00	0.00E+00	0.00E+00	0.00E+00
	1650000000	-9.47E-02	3.47E-02	8.62E-01	4.61E-01	0.00E+00	0.00E+00	0.00E+00	0.00E+00
	1700000000	-2.73E-02	1.94E-01	7.35E-01	6.03E-01	0.00E+00	0.00E+00	0.00E+00	0.00E+00
	1750000000	1.57E-01	1.96E-01	5.80E-01	7.36E-01	0.00E+00	0.00E+00	0.00E+00	0.00E+00
	1800000000	2.34E-01	4.30E-02	4.29E-01	8.45E-01	0.00E+00	0.00E+00	0.00E+00	0.00E+00
	1850000000	1.52E-01	-6.85E-02	2.74E-01	9.01E-01	0.00E+00	0.00E+00	0.00E+00	0.00E+00
	1900000000	6.74E-02	-5.16E-02	1.28E-01	9.15E-01	0.00E+00	0.00E+00	0.00E+00	0.00E+00
	1950000000	5.93E-02	-2.08E-02	1.36E-02	8.93E-01	0.00E+00	0.00E+00	0.00E+00	0.00E+00
	2000000000	8.30E-02	-2.76E-02	-4.09E-02	8.10E-01	0.00E+00	0.00E+00	0.00E+00	0.00E+00
	2050000000	5.29E-02	-2.11E-01	-3.49E-02	5.54E-01	0.00E+00	0.00E+00	0.00E+00	0.00E+00
	2100000000	-4.03E-01	-3.44E-02	-2.95E-01	2.02E-01	0.00E+00	0.00E+00	0.00E+00	0.00E+00
	2150000000	-1.95E-01	4.69E-01	-5.08E-01	7.18E-02	0.00E+00	0.00E+00	0.00E+00	0.00E+00
	2200000000	2.59E-01	4.85E-01	-6.10E-01	-4.62E-02	0.00E+00	0.00E+00	0.00E+00	0.00E+00
	2250000000	5.11E-01	1.85E-01	-6.47E-01	-1.57E-01	0.00E+00	0.00E+00	0.00E+00	0.00E+00
	2300000000	4.65E-01	-1.57E-01	-6.24E-01	-2.64E-01	0.00E+00	0.00E+00	0.00E+00	0.00E+00
	2350000000	2.22E-01	-3.48E-01	-5.58E-01	-3.74E-01	0.00E+00	0.00E+00	0.00E+00	0.00E+00
	2400000000	-6.70E-02	-3.22E-01	-4.72E-01	-4.69E-01	0.00E+00	0.00E+00	0.00E+00	0.00E+00
	2450000000	-2.41E-01	-9.97E-02	-3.86E-01	-5.31E-01	0.00E+00	0.00E+00	0.00E+00	0.00E+00
	2500000000	-1.40E-01	1.22E-01	-3.20E-01	-5.02E-01	0.00E+00	0.00E+00	0.00E+00	0.00E+00
	2550000000	-1.82E-01	1.44E-01	-4.47E-02	-3.43E-01	0.00E+00	0.00E+00	0.00E+00	0.00E+00
	2600000000	4.01E-02	3.90E-01	1.97E-01	-4.10E-01	0.00E+00	0.00E+00	0.00E+00	0.00E+00
	2650000000	3.48E-01	2.75E-01	3.39E-01	-3.91E-01	0.00E+00	0.00E+00	0.00E+00	0.00E+00
	2700000000	4.24E-01	-1.55E-02	4.66E-01	-3.15E-01	0.00E+00	0.00E+00	0.00E+00	0.00E+00
	2750000000	2.69E-01	-2.28E-01	5.74E-01	-2.03E-01	0.00E+00	0.00E+00	0.00E+00	0.00E+00
	2800000000	4.41E-02	-2.40E-01	6.59E-01	-8.29E-02	0.00E+00	0.00E+00	0.00E+00	0.00E+00
	2850000000	-8.37E-02	-1.09E-01	7.12E-01	3.52E-02	0.00E+00	0.00E+00	0.00E+00	0.00E+00
	2900000000	-6.73E-02	3.77E-02	6.97E-01	1.57E-01	0.00E+00	0.00E+00	0.00E+00	0.00E+00
	2950000000	8.82E-03	9.56E-02	6.28E-01	3.32E-01	0.00E+00	0.00E+00	0.00E+00	0.00E+00
	3000000000	1.15E-01	1.38E-01	5.85E-01	4.83E-01	0.00E+00	0.00E+00	0.00E+00	0.00E+00
	3050000000	2.30E-01	6.41E-02	4.92E-01	6.02E-01	0.00E+00	0.00E+00	0.00E+00	0.00E+00
	3100000000	2.39E-01	-7.14E-02	3.64E-01	7.14E-01	0.00E+00	0.00E+00	0.00E+00	0.00E+00
	3150000000	1.41E-01	-1.52E-01	2.39E-01	8.00E-01	0.00E+00	0.00E+00	0.00E+00	0.00E+00
	3200000000	3.85E-02	-1.18E-01	1.03E-01	8.27E-01	0.00E+00	0.00E+00	0.00E+00	0.00E+00
	3250000000	1.79E-02	-3.51E-02	-5.58E-02	8.19E-01	0.00E+00	0.00E+00	0.00E+00	0.00E+00
	3300000000	5.63E-02	1.43E-02	-2.16E-01	7.85E-01	0.00E+00	0.00E+00	0.00E+00	0.00E+00
	3350000000	9.24E-02	2.00E-02	-3.60E-01	7.25E-01	0.00E+00	0.00E+00	0.00E+00	0.00E+00
	3400000000	9.66E-02	3.21E-02	-4.71E-01	6.47E-01	0.00E+00	0.00E+00	0.00E+00	0.00E+00
	3450000000	1.88E-01	9.63E-02	-4.99E-01	5.04E-01	0.00E+00	0.00E+00	0.00E+00	0.00E+00
	3500000000	2.79E-01	-6.45E-03	-5.61E-01	2.79E-01	0.00E+00	0.00E+00	0.00E+00	0.00E+00
	3550000000	2.70E-01	-1.53E-01	-6.35E-01	3.62E-02	0.00E+00	0.00E+00	0.00E+00	0.00E+00
	3600000000	1.49E-01	-1.99E-01	-7.08E-01	-1.33E-01	0.00E+00	0.00E+00	0.00E+00	0.00E+00
	3650000000	7.49E-02	-1.73E-01	-7.02E-01	-2.92E-01	0.00E+00	0.00E+00	0.00E+00	0.00E+00
	3700000000	2.03E-02	-1.33E-01	-6.50E-01	-4.65E-01	0.00E+00	0.00E+00	0.00E+00	0.00E+00
	3750000000	-1.47E-02	-5.98E-02	-5.83E-01	-6.13E-01	0.00E+00	0.00E+00	0.00E+00	0.00E+00
	3800000000	1.63E-02	2.43E-02	-4.77E-01	-7.13E-01	0.00E+00	0.00E+00	0.00E+00	0.00E+00
	3850000000	8.16E-02	4.29E-02	-3.14E-01	-7.89E-01	0.00E+00	0.00E+00	0.00E+00	0.00E+00
	3900000000	1.01E-01	4.07E-02	-1.40E-01	-8.50E-01	0.00E+00	0.00E+00	0.00E+00	0.00E+00
	3950000000	1.42E-01	8.81E-02	2.89E-02	-8.49E-01	0.00E+00	0.00E+00	0.00E+00	0.00E+00
	4000000000	2.77E-01	7.84E-02	2.32E-01	-8.01E-01	0.00E+00	0.00E+00	0.00E+00	0.00E+00
	4050000000	3.79E-01	-8.60E-02	4.36E-01	-7.54E-01	0.00E+00	0.00E+00	0.00E+00	0.00E+00
	4100000000	3.01E-01	-2.98E-01	5.80E-01	-6.82E-01	0.00E+00	0.00E+00	0.00E+00	0.00E+00
	4150000000	8.36E-02	-3.76E-01	7.12E-01	-5.35E-01	0.00E+00	0.00E+00	0.00E+00	0.00E+00
	4200000000	-9.44E-02	-2.70E-01	8.42E-01	-3.83E-01	0.00E+00	0.00E+00	0.00E+00	0.00E+00
	4250000000	-1.34E-01	-1.33E-01	9.06E-01	-2.43E-01	0.00E+00	0.00E+00	0.00E+00	0.00E+00
	4300000000	-1.49E-01	-3.09E-02	9.08E-01	-5.84E-02	0.00E+00	0.00E+00	0.00E+00	0.00E+00
	4350000000	-1.22E-01	1.38E-01	8.93E-01	1.26E-01	0.00E+00	0.00E+00	0.00E+00	0.00E+00
	4400000000	9.51E-02	2.78E-01	8.16E-01	2.90E-01	0.00E+00	0.00E+00	0.00E+00	0.00E+00
	4450000000	3.79E-01	1.69E-01	6.88E-01	4.65E-01	0.00E+00	0.00E+00	0.00E+00	0.00E+00
	4500000000	4.67E-01	-1.23E-01	5.55E-01	6.29E-01	0.00E+00	0.00E+00	0.00E+00	0.00E+00
	4550000000	3.10E-01	-3.48E-01	3.88E-01	7.37E-01	0.00E+00	0.00E+00	0.00E+00	0.00E+00
	4600000000	1.02E-01	-3.52E-01	1.87E-01	8.30E-01	0.00E+00	0.00E+00	0.00E+00	0.00E+00
	4650000000	3.57E-02	-2.99E-01	-5.21E-03	8.71E-01	0.00E+00	0.00E+00	0.00E+00	0.00E+00
	4700000000	-6.27E-02	-2.41E-01	-2.35E-01	8.84E-01	0.00E+00	0.00E+00	0.00E+00	0.00E+00
	4750000000	-1.04E-01	-1.69E-01	-4.16E-01	8.19E-01	0.00E+00	0.00E+00	0.00E+00	0.00E+00
	4800000000	-1.28E-01	-2.73E-03	-6.74E-01	7.42E-01	0.00E+00	0.00E+00	0.00E+00	0.00E+00
	4850000000	5.86E-02	1.29E-01	-9.13E-01	7.18E-01	0.00E+00	0.00E+00	0.00E+00	0.00E+00
	4900000000	2.51E-01	-7.71E-04	-1.02E+00	6.84E-01	0.00E+00	0.00E+00	0.00E+00	0.00E+00
	4950000000	1.91E-01	-1.93E-01	-1.03E+00	5.52E-01	0.00E+00	0.00E+00	0.00E+00	0.00E+00
	5000000000	1.57E-02	-1.63E-01	-1.06E+00	3.66E-01	0.00E+00	0.00E+00	0.00E+00	0.00E+00
	5050000000	5.22E-02	1.57E-02	-1.08E+00	8.79E-02	0.00E+00	0.00E+00	0.00E+00	0.00E+00
	5100000000	2.57E-01	-1.84E-02	-1.08E+00	-1.09E-02	0.00E+00	0.00E+00	0.00E+00	0.00E+00
	5150000000	2.76E-01	-2.44E-01	-9.88E-01	-1.83E-01	0.00E+00	0.00E+00	0.00E+00	0.00E+00
	5200000000	7.67E-02	-3.50E-01	-8.73E-01	-3.57E-01	0.00E+00	0.00E+00	0.00E+00	0.00E+00
	5250000000	-7.20E-02	-2.37E-01	-7.49E-01	-5.28E-01	0.00E+00	0.00E+00	0.00E+00	0.00E+00
	5300000000	-3.50E-02	-1.50E-01	-6.09E-01	-6.69E-01	0.00E+00	0.00E+00	0.00E+00	0.00E+00
	5350000000	-5.77E-02	-1.90E-01	-4.62E-01	-7.31E-01	0.00E+00	0.00E+00	0.00E+00	0.00E+00
	5400000000	-1.61E-01	-1.10E-01	-2.53E-01	-7.88E-01	0.00E+00	0.00E+00	0.00E+00	0.00E+00
	5450000000	-9.62E-02	7.46E-02	-7.69E-02	-8.39E-01	0.00E+00	0.00E+00	0.00E+00	0.00E+00
	5500000000	1.29E-01	6.46E-02	5.66E-02	-8.03E-01	0.00E+00	0.00E+00	0.00E+00	0.00E+00
	5550000000	1.87E-01	-1.32E-01	2.26E-01	-6.91E-01	0.00E+00	0.00E+00	0.00E+00	0.00E+00
	5600000000	4.77E-02	-2.01E-01	3.86E-01	-5.61E-01	0.00E+00	0.00E+00	0.00E+00	0.00E+00
	5650000000	4.37E-02	-1.40E-01	5.42E-01	-4.14E-01	0.00E+00	0.00E+00	0.00E+00	0.00E+00
	5700000000	8.89E-02	-1.48E-01	6.51E-01	-2.83E-01	0.00E+00	0.00E+00	0.00E+00	0.00E+00
	5750000000	1.23E-01	-2.32E-01	7.05E-01	-1.21E-01	0.00E+00	0.00E+00	0.00E+00	0.00E+00
	5800000000	5.71E-02	-3.25E-01	7.29E-01	4.13E-02	0.00E+00	0.00E+00	0.00E+00	0.00E+00
	5850000000	-5.97E-02	-3.17E-01	7.01E-01	2.07E-01	0.00E+00	0.00E+00	0.00E+00	0.00E+00
	5900000000	-7.59E-02	-2.22E-01	6.59E-01	3.75E-01	0.00E+00	0.00E+00	0.00E+00	0.00E+00
	5950000000	-3.70E-03	-2.37E-01	5.95E-01	4.85E-01	0.00E+00	0.00E+00	0.00E+00	0.00E+00
	6000000000	-1.17E-01	-2.82E-01	7.37E-01	3.04E-02	0.00E+00	0.00E+00	0.00E+00	0.00E+00
