! NanoVNA-App									
! Date: 2024-03-20 19:28:44									
! Start: 1GHz Stop: 6GHz Points: 101									
! S-Parameter data: F S11 S21 S12 S22									
# Hz S RI R 50									
!	Frequency	S11_Real	S11_Imag	S21_Real	S21_Imag	S12_Real	S12_Imag	S22_Real	S22_Imag
	1000000000	1.09E-01	-1.79E-02	-5.56E-01	-8.88E-01	0.00E+00	0.00E+00	0.00E+00	0.00E+00
	1050000000	4.64E-02	-4.54E-03	-3.71E-01	-9.74E-01	0.00E+00	0.00E+00	0.00E+00	0.00E+00
	1100000000	6.03E-02	1.16E-02	-1.59E-01	-1.03E+00	0.00E+00	0.00E+00	0.00E+00	0.00E+00
	1150000000	5.84E-02	-3.45E-02	5.39E-02	-1.04E+00	0.00E+00	0.00E+00	0.00E+00	0.00E+00
	1200000000	-1.80E-02	-4.87E-02	2.61E-01	-1.00E+00	0.00E+00	0.00E+00	0.00E+00	0.00E+00
	1250000000	-6.32E-02	3.42E-02	4.71E-01	-9.19E-01	0.00E+00	0.00E+00	0.00E+00	0.00E+00
	1300000000	2.08E-03	1.02E-01	6.55E-01	-8.07E-01	0.00E+00	0.00E+00	0.00E+00	0.00E+00
	1350000000	6.84E-02	5.88E-02	8.03E-01	-6.58E-01	0.00E+00	0.00E+00	0.00E+00	0.00E+00
	1400000000	3.32E-02	5.80E-03	9.24E-01	-4.76E-01	0.00E+00	0.00E+00	0.00E+00	0.00E+00
	1450000000	-1.72E-02	6.08E-02	9.97E-01	-2.82E-01	0.00E+00	0.00E+00	0.00E+00	0.00E+00
	1500000000	5.40E-02	1.28E-01	1.02E+00	-6.95E-02	0.00E+00	0.00E+00	0.00E+00	0.00E+00
	1550000000	1.50E-01	5.94E-02	1.01E+00	1.49E-01	0.00E+00	0.00E+00	0.00E+00	0.00E+00
	1600000000	9.96E-02	-6.17E-02	9.63E-01	3.56E-01	0.00E+00	0.00E+00	0.00E+00	0.00E+00
	1650000000	-3.87E-02	-3.38E-02	8.79E-01	5.41E-01	0.00E+00	0.00E+00	0.00E+00	0.00E+00
	1700000000	-4.17E-02	1.12E-01	7.42E-01	6.91E-01	0.00E+00	0.00E+00	0.00E+00	0.00E+00
	1750000000	9.24E-02	1.52E-01	5.69E-01	8.28E-01	0.00E+00	0.00E+00	0.00E+00	0.00E+00
	1800000000	1.58E-01	5.37E-02	3.94E-01	9.39E-01	0.00E+00	0.00E+00	0.00E+00	0.00E+00
	1850000000	9.97E-02	-8.11E-03	2.00E-01	9.98E-01	0.00E+00	0.00E+00	0.00E+00	0.00E+00
	1900000000	7.60E-02	2.63E-02	-2.36E-04	1.02E+00	0.00E+00	0.00E+00	0.00E+00	0.00E+00
	1950000000	1.20E-01	8.97E-03	-1.94E-01	1.01E+00	0.00E+00	0.00E+00	0.00E+00	0.00E+00
	2000000000	7.75E-02	-7.68E-02	-3.61E-01	9.48E-01	0.00E+00	0.00E+00	0.00E+00	0.00E+00
	2050000000	-5.97E-02	-4.49E-02	-5.25E-01	8.44E-01	0.00E+00	0.00E+00	0.00E+00	0.00E+00
	2100000000	-6.93E-02	1.21E-01	-6.78E-01	7.21E-01	0.00E+00	0.00E+00	0.00E+00	0.00E+00
	2150000000	8.98E-02	1.74E-01	-7.96E-01	5.92E-01	0.00E+00	0.00E+00	0.00E+00	0.00E+00
	2200000000	1.59E-01	3.95E-02	-8.85E-01	4.57E-01	0.00E+00	0.00E+00	0.00E+00	0.00E+00
	2250000000	2.19E-02	-1.99E-02	-9.26E-01	3.33E-01	0.00E+00	0.00E+00	0.00E+00	0.00E+00
	2300000000	-4.27E-02	1.57E-01	-9.26E-01	2.11E-01	0.00E+00	0.00E+00	0.00E+00	0.00E+00
	2350000000	1.64E-01	2.91E-01	-8.93E-01	1.14E-01	0.00E+00	0.00E+00	0.00E+00	0.00E+00
	2400000000	4.16E-01	1.53E-01	-8.04E-01	4.77E-02	0.00E+00	0.00E+00	0.00E+00	0.00E+00
	2450000000	4.88E-01	-1.76E-01	-6.57E-01	-4.65E-03	0.00E+00	0.00E+00	0.00E+00	0.00E+00
	2500000000	2.31E-01	-5.33E-01	-4.76E-01	-6.69E-02	0.00E+00	0.00E+00	0.00E+00	0.00E+00
	2550000000	-3.36E-01	-5.27E-01	-2.93E-01	-1.07E-01	0.00E+00	0.00E+00	0.00E+00	0.00E+00
	2600000000	-6.83E-01	2.43E-02	-1.22E-01	-1.32E-01	0.00E+00	0.00E+00	0.00E+00	0.00E+00
	2650000000	-3.82E-01	6.34E-01	4.07E-02	-1.29E-01	0.00E+00	0.00E+00	0.00E+00	0.00E+00
	2700000000	2.26E-01	7.37E-01	1.56E-01	-1.05E-01	0.00E+00	0.00E+00	0.00E+00	0.00E+00
	2750000000	6.61E-01	4.05E-01	2.49E-01	-3.81E-02	0.00E+00	0.00E+00	0.00E+00	0.00E+00
	2800000000	7.58E-01	-8.31E-02	3.22E-01	6.62E-02	0.00E+00	0.00E+00	0.00E+00	0.00E+00
	2850000000	5.25E-01	-4.97E-01	3.80E-01	1.83E-01	0.00E+00	0.00E+00	0.00E+00	0.00E+00
	2900000000	6.94E-02	-6.76E-01	4.15E-01	3.00E-01	0.00E+00	0.00E+00	0.00E+00	0.00E+00
	2950000000	-4.09E-01	-4.73E-01	4.17E-01	4.09E-01	0.00E+00	0.00E+00	0.00E+00	0.00E+00
	3000000000	-5.81E-01	5.37E-02	3.95E-01	4.94E-01	0.00E+00	0.00E+00	0.00E+00	0.00E+00
	3050000000	-2.81E-01	4.95E-01	3.10E-01	5.48E-01	0.00E+00	0.00E+00	0.00E+00	0.00E+00
	3100000000	1.86E-01	5.47E-01	1.78E-01	6.07E-01	0.00E+00	0.00E+00	0.00E+00	0.00E+00
	3150000000	5.01E-01	3.03E-01	4.00E-02	6.68E-01	0.00E+00	0.00E+00	0.00E+00	0.00E+00
	3200000000	5.81E-01	-3.25E-02	-8.34E-02	7.07E-01	0.00E+00	0.00E+00	0.00E+00	0.00E+00
	3250000000	4.58E-01	-3.28E-01	-2.25E-01	7.10E-01	0.00E+00	0.00E+00	0.00E+00	0.00E+00
	3300000000	1.74E-01	-4.88E-01	-3.57E-01	6.80E-01	0.00E+00	0.00E+00	0.00E+00	0.00E+00
	3350000000	-1.63E-01	-4.09E-01	-4.77E-01	6.11E-01	0.00E+00	0.00E+00	0.00E+00	0.00E+00
	3400000000	-3.42E-01	-9.33E-02	-5.89E-01	5.12E-01	0.00E+00	0.00E+00	0.00E+00	0.00E+00
	3450000000	-2.20E-01	2.40E-01	-6.79E-01	3.93E-01	0.00E+00	0.00E+00	0.00E+00	0.00E+00
	3500000000	5.46E-02	3.68E-01	-7.51E-01	2.58E-01	0.00E+00	0.00E+00	0.00E+00	0.00E+00
	3550000000	3.44E-01	3.20E-01	-7.68E-01	1.06E-01	0.00E+00	0.00E+00	0.00E+00	0.00E+00
	3600000000	5.51E-01	7.75E-02	-7.73E-01	-3.41E-02	0.00E+00	0.00E+00	0.00E+00	0.00E+00
	3650000000	5.48E-01	-2.44E-01	-7.19E-01	-1.98E-01	0.00E+00	0.00E+00	0.00E+00	0.00E+00
	3700000000	3.21E-01	-4.99E-01	-6.47E-01	-3.86E-01	0.00E+00	0.00E+00	0.00E+00	0.00E+00
	3750000000	-4.12E-02	-5.40E-01	-5.84E-01	-5.51E-01	0.00E+00	0.00E+00	0.00E+00	0.00E+00
	3800000000	-3.41E-01	-3.12E-01	-5.12E-01	-6.61E-01	0.00E+00	0.00E+00	0.00E+00	0.00E+00
	3850000000	-4.12E-01	5.66E-02	-4.02E-01	-7.30E-01	0.00E+00	0.00E+00	0.00E+00	0.00E+00
	3900000000	-2.23E-01	4.01E-01	-2.76E-01	-7.58E-01	0.00E+00	0.00E+00	0.00E+00	0.00E+00
	3950000000	1.77E-01	5.35E-01	-1.19E-01	-7.19E-01	0.00E+00	0.00E+00	0.00E+00	0.00E+00
	4000000000	5.64E-01	3.37E-01	8.50E-02	-6.58E-01	0.00E+00	0.00E+00	0.00E+00	0.00E+00
	4050000000	7.13E-01	-6.02E-02	2.78E-01	-6.06E-01	0.00E+00	0.00E+00	0.00E+00	0.00E+00
	4100000000	5.77E-01	-4.51E-01	4.21E-01	-5.33E-01	0.00E+00	0.00E+00	0.00E+00	0.00E+00
	4150000000	2.28E-01	-6.74E-01	5.51E-01	-4.14E-01	0.00E+00	0.00E+00	0.00E+00	0.00E+00
	4200000000	-1.82E-01	-6.26E-01	6.77E-01	-2.92E-01	0.00E+00	0.00E+00	0.00E+00	0.00E+00
	4250000000	-4.66E-01	-3.36E-01	7.34E-01	-1.86E-01	0.00E+00	0.00E+00	0.00E+00	0.00E+00
	4300000000	-5.25E-01	6.67E-02	7.24E-01	-4.25E-02	0.00E+00	0.00E+00	0.00E+00	0.00E+00
	4350000000	-2.97E-01	4.51E-01	6.84E-01	1.08E-01	0.00E+00	0.00E+00	0.00E+00	0.00E+00
	4400000000	1.59E-01	5.89E-01	5.98E-01	2.53E-01	0.00E+00	0.00E+00	0.00E+00	0.00E+00
	4450000000	5.86E-01	3.61E-01	4.79E-01	4.04E-01	0.00E+00	0.00E+00	0.00E+00	0.00E+00
	4500000000	7.38E-01	-6.99E-02	3.56E-01	5.35E-01	0.00E+00	0.00E+00	0.00E+00	0.00E+00
	4550000000	5.92E-01	-4.68E-01	2.01E-01	6.13E-01	0.00E+00	0.00E+00	0.00E+00	0.00E+00
	4600000000	2.52E-01	-6.76E-01	-5.43E-03	6.76E-01	0.00E+00	0.00E+00	0.00E+00	0.00E+00
	4650000000	-1.24E-01	-6.23E-01	-2.01E-01	7.45E-01	0.00E+00	0.00E+00	0.00E+00	0.00E+00
	4700000000	-3.55E-01	-3.78E-01	-3.25E-01	7.47E-01	0.00E+00	0.00E+00	0.00E+00	0.00E+00
	4750000000	-4.40E-01	-7.60E-02	-4.77E-01	6.36E-01	0.00E+00	0.00E+00	0.00E+00	0.00E+00
	4800000000	-3.17E-01	2.94E-01	-7.04E-01	5.26E-01	0.00E+00	0.00E+00	0.00E+00	0.00E+00
	4850000000	9.67E-02	4.68E-01	-9.31E-01	4.78E-01	0.00E+00	0.00E+00	0.00E+00	0.00E+00
	4900000000	4.80E-01	2.50E-01	-1.01E+00	4.50E-01	0.00E+00	0.00E+00	0.00E+00	0.00E+00
	4950000000	5.56E-01	-1.29E-01	-9.63E-01	3.24E-01	0.00E+00	0.00E+00	0.00E+00	0.00E+00
	5000000000	3.69E-01	-4.07E-01	-9.21E-01	9.93E-02	0.00E+00	0.00E+00	0.00E+00	0.00E+00
	5050000000	8.03E-02	-4.53E-01	-8.92E-01	-2.25E-01	0.00E+00	0.00E+00	0.00E+00	0.00E+00
	5100000000	-7.88E-02	-3.11E-01	-9.53E-01	-4.04E-01	0.00E+00	0.00E+00	0.00E+00	0.00E+00
	5150000000	-1.15E-01	-2.40E-01	-9.43E-01	-5.51E-01	0.00E+00	0.00E+00	0.00E+00	0.00E+00
	5200000000	-2.25E-01	-1.26E-01	-8.47E-01	-6.57E-01	0.00E+00	0.00E+00	0.00E+00	0.00E+00
	5250000000	-1.67E-01	1.42E-01	-7.09E-01	-7.74E-01	0.00E+00	0.00E+00	0.00E+00	0.00E+00
	5300000000	1.61E-01	2.05E-01	-5.65E-01	-8.48E-01	0.00E+00	0.00E+00	0.00E+00	0.00E+00
	5350000000	3.49E-01	-7.90E-02	-3.89E-01	-8.35E-01	0.00E+00	0.00E+00	0.00E+00	0.00E+00
	5400000000	1.89E-01	-3.41E-01	-1.24E-01	-8.47E-01	0.00E+00	0.00E+00	0.00E+00	0.00E+00
	5450000000	-6.31E-02	-3.13E-01	1.25E-01	-8.93E-01	0.00E+00	0.00E+00	0.00E+00	0.00E+00
	5500000000	-8.63E-02	-1.57E-01	2.89E-01	-9.12E-01	0.00E+00	0.00E+00	0.00E+00	0.00E+00
	5550000000	-2.96E-02	-1.86E-01	4.03E-01	-8.28E-01	0.00E+00	0.00E+00	0.00E+00	0.00E+00
	5600000000	-1.68E-01	-2.05E-01	5.55E-01	-6.89E-01	0.00E+00	0.00E+00	0.00E+00	0.00E+00
	5650000000	-2.39E-01	3.58E-02	6.85E-01	-5.76E-01	0.00E+00	0.00E+00	0.00E+00	0.00E+00
	5700000000	4.15E-02	2.33E-01	7.39E-01	-4.56E-01	0.00E+00	0.00E+00	0.00E+00	0.00E+00
	5750000000	3.75E-01	4.97E-02	7.42E-01	-2.64E-01	0.00E+00	0.00E+00	0.00E+00	0.00E+00
	5800000000	4.00E-01	-3.11E-01	7.22E-01	-6.98E-02	0.00E+00	0.00E+00	0.00E+00	0.00E+00
	5850000000	1.83E-01	-5.20E-01	6.78E-01	1.34E-01	0.00E+00	0.00E+00	0.00E+00	0.00E+00
	5900000000	-3.00E-02	-5.33E-01	6.36E-01	3.16E-01	0.00E+00	0.00E+00	0.00E+00	0.00E+00
	5950000000	-1.93E-01	-5.07E-01	5.75E-01	4.33E-01	0.00E+00	0.00E+00	0.00E+00	0.00E+00
	6000000000	-4.48E-01	-3.20E-01	6.92E-01	1.13E-02	0.00E+00	0.00E+00	0.00E+00	0.00E+00
