! NanoVNA-App									
! Date: 2024-03-20 22:13:55									
! Start: 1GHz Stop: 6GHz Points: 101									
! S-Parameter data: F S11 S21 S12 S22									
# Hz S RI R 50									
!	Frequency	S11_Real	S11_Imag	S21_Real	S21_Imag	S12_Real	S12_Imag	S22_Real	S22_Imag
	1000000000	1.22E-01	-2.37E-02	-5.55E-01	-8.78E-01	0.00E+00	0.00E+00	0.00E+00	0.00E+00
	1050000000	5.26E-02	-2.29E-02	-3.74E-01	-9.65E-01	0.00E+00	0.00E+00	0.00E+00	0.00E+00
	1100000000	4.98E-02	-1.09E-02	-1.68E-01	-1.02E+00	0.00E+00	0.00E+00	0.00E+00	0.00E+00
	1150000000	3.07E-02	-4.61E-02	3.84E-02	-1.03E+00	0.00E+00	0.00E+00	0.00E+00	0.00E+00
	1200000000	-4.94E-02	-3.63E-02	2.45E-01	-9.90E-01	0.00E+00	0.00E+00	0.00E+00	0.00E+00
	1250000000	-7.73E-02	6.67E-02	4.50E-01	-9.09E-01	0.00E+00	0.00E+00	0.00E+00	0.00E+00
	1300000000	1.60E-02	1.35E-01	6.30E-01	-8.02E-01	0.00E+00	0.00E+00	0.00E+00	0.00E+00
	1350000000	1.02E-01	6.59E-02	7.72E-01	-6.53E-01	0.00E+00	0.00E+00	0.00E+00	0.00E+00
	1400000000	7.45E-02	4.77E-03	9.02E-01	-4.81E-01	0.00E+00	0.00E+00	0.00E+00	0.00E+00
	1450000000	1.83E-02	2.17E-02	9.74E-01	-2.99E-01	0.00E+00	0.00E+00	0.00E+00	0.00E+00
	1500000000	5.24E-02	6.36E-02	1.00E+00	-1.01E-01	0.00E+00	0.00E+00	0.00E+00	0.00E+00
	1550000000	9.53E-02	6.42E-03	9.91E-01	1.01E-01	0.00E+00	0.00E+00	0.00E+00	0.00E+00
	1600000000	1.27E-02	-5.55E-02	9.44E-01	2.94E-01	0.00E+00	0.00E+00	0.00E+00	0.00E+00
	1650000000	-9.23E-02	4.01E-02	8.57E-01	4.61E-01	0.00E+00	0.00E+00	0.00E+00	0.00E+00
	1700000000	-2.24E-02	1.98E-01	7.30E-01	6.05E-01	0.00E+00	0.00E+00	0.00E+00	0.00E+00
	1750000000	1.64E-01	1.98E-01	5.73E-01	7.37E-01	0.00E+00	0.00E+00	0.00E+00	0.00E+00
	1800000000	2.40E-01	3.97E-02	4.22E-01	8.44E-01	0.00E+00	0.00E+00	0.00E+00	0.00E+00
	1850000000	1.53E-01	-7.54E-02	2.69E-01	8.99E-01	0.00E+00	0.00E+00	0.00E+00	0.00E+00
	1900000000	6.16E-02	-5.74E-02	1.22E-01	9.13E-01	0.00E+00	0.00E+00	0.00E+00	0.00E+00
	1950000000	4.96E-02	-2.00E-02	7.80E-03	8.90E-01	0.00E+00	0.00E+00	0.00E+00	0.00E+00
	2000000000	7.35E-02	-1.82E-02	-4.95E-02	8.08E-01	0.00E+00	0.00E+00	0.00E+00	0.00E+00
	2050000000	5.94E-02	-1.89E-01	-3.53E-02	5.64E-01	0.00E+00	0.00E+00	0.00E+00	0.00E+00
	2100000000	-3.92E-01	-3.73E-02	-2.77E-01	1.99E-01	0.00E+00	0.00E+00	0.00E+00	0.00E+00
	2150000000	-1.90E-01	4.69E-01	-4.94E-01	6.26E-02	0.00E+00	0.00E+00	0.00E+00	0.00E+00
	2200000000	2.67E-01	4.82E-01	-5.95E-01	-5.35E-02	0.00E+00	0.00E+00	0.00E+00	0.00E+00
	2250000000	5.14E-01	1.77E-01	-6.31E-01	-1.64E-01	0.00E+00	0.00E+00	0.00E+00	0.00E+00
	2300000000	4.60E-01	-1.67E-01	-6.03E-01	-2.72E-01	0.00E+00	0.00E+00	0.00E+00	0.00E+00
	2350000000	2.05E-01	-3.52E-01	-5.34E-01	-3.78E-01	0.00E+00	0.00E+00	0.00E+00	0.00E+00
	2400000000	-8.28E-02	-3.10E-01	-4.48E-01	-4.73E-01	0.00E+00	0.00E+00	0.00E+00	0.00E+00
	2450000000	-2.40E-01	-7.60E-02	-3.59E-01	-5.32E-01	0.00E+00	0.00E+00	0.00E+00	0.00E+00
	2500000000	-1.22E-01	1.36E-01	-2.90E-01	-5.03E-01	0.00E+00	0.00E+00	0.00E+00	0.00E+00
	2550000000	-1.51E-01	1.33E-01	-2.72E-02	-3.41E-01	0.00E+00	0.00E+00	0.00E+00	0.00E+00
	2600000000	4.40E-02	3.68E-01	2.25E-01	-3.97E-01	0.00E+00	0.00E+00	0.00E+00	0.00E+00
	2650000000	3.33E-01	2.59E-01	3.66E-01	-3.77E-01	0.00E+00	0.00E+00	0.00E+00	0.00E+00
	2700000000	4.04E-01	-1.34E-02	4.94E-01	-2.96E-01	0.00E+00	0.00E+00	0.00E+00	0.00E+00
	2750000000	2.52E-01	-2.14E-01	6.00E-01	-1.89E-01	0.00E+00	0.00E+00	0.00E+00	0.00E+00
	2800000000	4.00E-02	-2.21E-01	6.89E-01	-6.79E-02	0.00E+00	0.00E+00	0.00E+00	0.00E+00
	2850000000	-6.63E-02	-9.45E-02	7.32E-01	5.41E-02	0.00E+00	0.00E+00	0.00E+00	0.00E+00
	2900000000	-4.61E-02	3.21E-02	7.14E-01	1.81E-01	0.00E+00	0.00E+00	0.00E+00	0.00E+00
	2950000000	1.46E-02	7.66E-02	6.36E-01	3.50E-01	0.00E+00	0.00E+00	0.00E+00	0.00E+00
	3000000000	1.04E-01	1.26E-01	5.94E-01	5.06E-01	0.00E+00	0.00E+00	0.00E+00	0.00E+00
	3050000000	2.16E-01	6.40E-02	4.96E-01	6.23E-01	0.00E+00	0.00E+00	0.00E+00	0.00E+00
	3100000000	2.31E-01	-6.54E-02	3.62E-01	7.32E-01	0.00E+00	0.00E+00	0.00E+00	0.00E+00
	3150000000	1.38E-01	-1.44E-01	2.32E-01	8.18E-01	0.00E+00	0.00E+00	0.00E+00	0.00E+00
	3200000000	4.16E-02	-1.10E-01	9.48E-02	8.43E-01	0.00E+00	0.00E+00	0.00E+00	0.00E+00
	3250000000	2.53E-02	-3.23E-02	-6.86E-02	8.33E-01	0.00E+00	0.00E+00	0.00E+00	0.00E+00
	3300000000	6.14E-02	9.45E-03	-2.30E-01	8.00E-01	0.00E+00	0.00E+00	0.00E+00	0.00E+00
	3350000000	9.21E-02	1.48E-02	-3.74E-01	7.34E-01	0.00E+00	0.00E+00	0.00E+00	0.00E+00
	3400000000	9.56E-02	2.88E-02	-4.89E-01	6.51E-01	0.00E+00	0.00E+00	0.00E+00	0.00E+00
	3450000000	1.85E-01	9.55E-02	-5.13E-01	5.08E-01	0.00E+00	0.00E+00	0.00E+00	0.00E+00
	3500000000	2.77E-01	-8.69E-03	-5.76E-01	2.77E-01	0.00E+00	0.00E+00	0.00E+00	0.00E+00
	3550000000	2.65E-01	-1.55E-01	-6.52E-01	2.79E-02	0.00E+00	0.00E+00	0.00E+00	0.00E+00
	3600000000	1.44E-01	-1.95E-01	-7.25E-01	-1.43E-01	0.00E+00	0.00E+00	0.00E+00	0.00E+00
	3650000000	7.62E-02	-1.67E-01	-7.15E-01	-3.01E-01	0.00E+00	0.00E+00	0.00E+00	0.00E+00
	3700000000	2.55E-02	-1.32E-01	-6.61E-01	-4.74E-01	0.00E+00	0.00E+00	0.00E+00	0.00E+00
	3750000000	-1.13E-02	-6.23E-02	-5.90E-01	-6.24E-01	0.00E+00	0.00E+00	0.00E+00	0.00E+00
	3800000000	1.88E-02	2.10E-02	-4.80E-01	-7.25E-01	0.00E+00	0.00E+00	0.00E+00	0.00E+00
	3850000000	8.29E-02	3.79E-02	-3.14E-01	-8.01E-01	0.00E+00	0.00E+00	0.00E+00	0.00E+00
	3900000000	9.72E-02	3.56E-02	-1.37E-01	-8.61E-01	0.00E+00	0.00E+00	0.00E+00	0.00E+00
	3950000000	1.35E-01	8.72E-02	2.88E-02	-8.59E-01	0.00E+00	0.00E+00	0.00E+00	0.00E+00
	4000000000	2.74E-01	8.38E-02	2.36E-01	-8.10E-01	0.00E+00	0.00E+00	0.00E+00	0.00E+00
	4050000000	3.82E-01	-7.96E-02	4.44E-01	-7.59E-01	0.00E+00	0.00E+00	0.00E+00	0.00E+00
	4100000000	3.07E-01	-2.95E-01	5.87E-01	-6.84E-01	0.00E+00	0.00E+00	0.00E+00	0.00E+00
	4150000000	8.87E-02	-3.77E-01	7.17E-01	-5.36E-01	0.00E+00	0.00E+00	0.00E+00	0.00E+00
	4200000000	-9.19E-02	-2.73E-01	8.48E-01	-3.82E-01	0.00E+00	0.00E+00	0.00E+00	0.00E+00
	4250000000	-1.35E-01	-1.35E-01	9.10E-01	-2.39E-01	0.00E+00	0.00E+00	0.00E+00	0.00E+00
	4300000000	-1.51E-01	-3.13E-02	9.12E-01	-5.16E-02	0.00E+00	0.00E+00	0.00E+00	0.00E+00
	4350000000	-1.24E-01	1.41E-01	8.96E-01	1.33E-01	0.00E+00	0.00E+00	0.00E+00	0.00E+00
	4400000000	9.48E-02	2.82E-01	8.18E-01	2.98E-01	0.00E+00	0.00E+00	0.00E+00	0.00E+00
	4450000000	3.81E-01	1.73E-01	6.90E-01	4.71E-01	0.00E+00	0.00E+00	0.00E+00	0.00E+00
	4500000000	4.69E-01	-1.19E-01	5.50E-01	6.36E-01	0.00E+00	0.00E+00	0.00E+00	0.00E+00
	4550000000	3.13E-01	-3.45E-01	3.87E-01	7.40E-01	0.00E+00	0.00E+00	0.00E+00	0.00E+00
	4600000000	1.07E-01	-3.52E-01	1.83E-01	8.31E-01	0.00E+00	0.00E+00	0.00E+00	0.00E+00
	4650000000	3.53E-02	-3.05E-01	-1.62E-02	8.71E-01	0.00E+00	0.00E+00	0.00E+00	0.00E+00
	4700000000	-6.93E-02	-2.41E-01	-2.47E-01	8.83E-01	0.00E+00	0.00E+00	0.00E+00	0.00E+00
	4750000000	-1.11E-01	-1.65E-01	-4.30E-01	8.18E-01	0.00E+00	0.00E+00	0.00E+00	0.00E+00
	4800000000	-1.33E-01	4.50E-03	-6.87E-01	7.36E-01	0.00E+00	0.00E+00	0.00E+00	0.00E+00
	4850000000	5.55E-02	1.37E-01	-9.28E-01	7.09E-01	0.00E+00	0.00E+00	0.00E+00	0.00E+00
	4900000000	2.52E-01	7.90E-03	-1.03E+00	6.72E-01	0.00E+00	0.00E+00	0.00E+00	0.00E+00
	4950000000	1.97E-01	-1.89E-01	-1.05E+00	5.42E-01	0.00E+00	0.00E+00	0.00E+00	0.00E+00
	5000000000	1.93E-02	-1.65E-01	-1.06E+00	3.52E-01	0.00E+00	0.00E+00	0.00E+00	0.00E+00
	5050000000	4.90E-02	8.76E-03	-1.08E+00	6.32E-02	0.00E+00	0.00E+00	0.00E+00	0.00E+00
	5100000000	2.49E-01	-1.94E-02	-1.08E+00	-3.49E-02	0.00E+00	0.00E+00	0.00E+00	0.00E+00
	5150000000	2.69E-01	-2.41E-01	-9.93E-01	-2.02E-01	0.00E+00	0.00E+00	0.00E+00	0.00E+00
	5200000000	6.90E-02	-3.45E-01	-8.73E-01	-3.75E-01	0.00E+00	0.00E+00	0.00E+00	0.00E+00
	5250000000	-7.70E-02	-2.31E-01	-7.43E-01	-5.46E-01	0.00E+00	0.00E+00	0.00E+00	0.00E+00
	5300000000	-3.81E-02	-1.42E-01	-6.02E-01	-6.84E-01	0.00E+00	0.00E+00	0.00E+00	0.00E+00
	5350000000	-5.39E-02	-1.87E-01	-4.51E-01	-7.47E-01	0.00E+00	0.00E+00	0.00E+00	0.00E+00
	5400000000	-1.60E-01	-1.12E-01	-2.39E-01	-7.99E-01	0.00E+00	0.00E+00	0.00E+00	0.00E+00
	5450000000	-1.02E-01	7.28E-02	-6.23E-02	-8.46E-01	0.00E+00	0.00E+00	0.00E+00	0.00E+00
	5500000000	1.22E-01	6.74E-02	7.16E-02	-8.07E-01	0.00E+00	0.00E+00	0.00E+00	0.00E+00
	5550000000	1.80E-01	-1.28E-01	2.42E-01	-6.92E-01	0.00E+00	0.00E+00	0.00E+00	0.00E+00
	5600000000	4.39E-02	-2.01E-01	4.04E-01	-5.58E-01	0.00E+00	0.00E+00	0.00E+00	0.00E+00
	5650000000	3.57E-02	-1.33E-01	5.52E-01	-4.11E-01	0.00E+00	0.00E+00	0.00E+00	0.00E+00
	5700000000	8.67E-02	-1.43E-01	6.64E-01	-2.71E-01	0.00E+00	0.00E+00	0.00E+00	0.00E+00
	5750000000	1.21E-01	-2.29E-01	7.14E-01	-1.12E-01	0.00E+00	0.00E+00	0.00E+00	0.00E+00
	5800000000	5.63E-02	-3.24E-01	7.35E-01	5.86E-02	0.00E+00	0.00E+00	0.00E+00	0.00E+00
	5850000000	-6.48E-02	-3.19E-01	7.04E-01	2.24E-01	0.00E+00	0.00E+00	0.00E+00	0.00E+00
	5900000000	-8.55E-02	-2.23E-01	6.60E-01	3.91E-01	0.00E+00	0.00E+00	0.00E+00	0.00E+00
	5950000000	-1.59E-02	-2.32E-01	5.95E-01	5.02E-01	0.00E+00	0.00E+00	0.00E+00	0.00E+00
	6000000000	-1.26E-01	-2.73E-01	7.48E-01	4.28E-02	0.00E+00	0.00E+00	0.00E+00	0.00E+00
