! NanoVNA-App
! Date: 2024-03-20 20:05:56
! Start: 1GHz Stop: 6GHz Points: 101
! S-Parameter data: F S11 S21 S12 S22
# Hz S RI R 50
!     Frequency           S11_Real           S11_Imag           S21_Real           S21_Imag           S12_Real           S12_Imag           S22_Real           S22_Imag
     1000000000    1.239990667e-01   -2.403252013e-02   -5.528337955e-01   -8.805040717e-01    0.000000000e+00    0.000000000e+00    0.000000000e+00    0.000000000e+00
     1050000000    5.369720981e-02   -2.354920283e-02   -3.713510334e-01   -9.661265612e-01    0.000000000e+00    0.000000000e+00    0.000000000e+00    0.000000000e+00
     1100000000    5.054793507e-02   -1.076905057e-02   -1.638197452e-01   -1.019050717e+00    0.000000000e+00    0.000000000e+00    0.000000000e+00    0.000000000e+00
     1150000000    3.192894906e-02   -4.540180042e-02    4.235406592e-02   -1.031492949e+00    0.000000000e+00    0.000000000e+00    0.000000000e+00    0.000000000e+00
     1200000000   -4.768732563e-02   -3.625931591e-02    2.474208027e-01   -9.881258607e-01    0.000000000e+00    0.000000000e+00    0.000000000e+00    0.000000000e+00
     1250000000   -7.614762336e-02    6.651245803e-02    4.529435933e-01   -9.078456759e-01    0.000000000e+00    0.000000000e+00    0.000000000e+00    0.000000000e+00
     1300000000    1.665183716e-02    1.360563636e-01    6.331732273e-01   -7.990781665e-01    0.000000000e+00    0.000000000e+00    0.000000000e+00    0.000000000e+00
     1350000000    1.032032222e-01    6.674934924e-02    7.740699053e-01   -6.500253677e-01    0.000000000e+00    0.000000000e+00    0.000000000e+00    0.000000000e+00
     1400000000    7.642558962e-02    5.244265310e-03    9.032290578e-01   -4.778036773e-01    0.000000000e+00    0.000000000e+00    0.000000000e+00    0.000000000e+00
     1450000000    1.973923296e-02    2.095368318e-02    9.754803181e-01   -2.959626019e-01    0.000000000e+00    0.000000000e+00    0.000000000e+00    0.000000000e+00
     1500000000    5.250211805e-02    6.336293370e-02    1.001516223e+00   -9.856671095e-02    0.000000000e+00    0.000000000e+00    0.000000000e+00    0.000000000e+00
     1550000000    9.490168095e-02    7.518347353e-03    9.898976088e-01    1.068159044e-01    0.000000000e+00    0.000000000e+00    0.000000000e+00    0.000000000e+00
     1600000000    1.294987556e-02   -5.405221879e-02    9.409871101e-01    2.945084274e-01    0.000000000e+00    0.000000000e+00    0.000000000e+00    0.000000000e+00
     1650000000   -9.158207476e-02    4.194150493e-02    8.549548984e-01    4.641655087e-01    0.000000000e+00    0.000000000e+00    0.000000000e+00    0.000000000e+00
     1700000000   -2.062154189e-02    2.003727406e-01    7.266240716e-01    6.059157252e-01    0.000000000e+00    0.000000000e+00    0.000000000e+00    0.000000000e+00
     1750000000    1.660807580e-01    1.984284967e-01    5.684578419e-01    7.381869555e-01    0.000000000e+00    0.000000000e+00    0.000000000e+00    0.000000000e+00
     1800000000    2.421995103e-01    3.884966299e-02    4.175067246e-01    8.449068666e-01    0.000000000e+00    0.000000000e+00    0.000000000e+00    0.000000000e+00
     1850000000    1.533726454e-01   -7.739635557e-02    2.642273307e-01    8.981924057e-01    0.000000000e+00    0.000000000e+00    0.000000000e+00    0.000000000e+00
     1900000000    5.954323709e-02   -5.819917843e-02    1.183357239e-01    9.118749499e-01    0.000000000e+00    0.000000000e+00    0.000000000e+00    0.000000000e+00
     1950000000    4.745090008e-02   -1.842518896e-02    4.549044650e-03    8.884583116e-01    0.000000000e+00    0.000000000e+00    0.000000000e+00    0.000000000e+00
     2000000000    7.202395797e-02   -1.566108316e-02   -5.420396104e-02    8.054343462e-01    0.000000000e+00    0.000000000e+00    0.000000000e+00    0.000000000e+00
     2050000000    5.934833363e-02   -1.811359674e-01   -4.068828747e-02    5.616737604e-01    0.000000000e+00    0.000000000e+00    0.000000000e+00    0.000000000e+00
     2100000000   -3.863115311e-01   -3.752778471e-02   -2.753069997e-01    1.993407756e-01    0.000000000e+00    0.000000000e+00    0.000000000e+00    0.000000000e+00
     2150000000   -1.871833205e-01    4.675178826e-01   -4.904213548e-01    6.097823754e-02    0.000000000e+00    0.000000000e+00    0.000000000e+00    0.000000000e+00
     2200000000    2.673867941e-01    4.795954525e-01   -5.892118216e-01   -5.729503557e-02    0.000000000e+00    0.000000000e+00    0.000000000e+00    0.000000000e+00
     2250000000    5.142797828e-01    1.741249561e-01   -6.246927977e-01   -1.664695442e-01    0.000000000e+00    0.000000000e+00    0.000000000e+00    0.000000000e+00
     2300000000    4.582098424e-01   -1.699063033e-01   -5.959553719e-01   -2.751054168e-01    0.000000000e+00    0.000000000e+00    0.000000000e+00    0.000000000e+00
     2350000000    2.012320906e-01   -3.526206315e-01   -5.267639160e-01   -3.827967346e-01    0.000000000e+00    0.000000000e+00    0.000000000e+00    0.000000000e+00
     2400000000   -8.834329993e-02   -3.045970201e-01   -4.385894835e-01   -4.743178487e-01    0.000000000e+00    0.000000000e+00    0.000000000e+00    0.000000000e+00
     2450000000   -2.375804335e-01   -6.877065450e-02   -3.479108512e-01   -5.350127816e-01    0.000000000e+00    0.000000000e+00    0.000000000e+00    0.000000000e+00
     2500000000   -1.147846356e-01    1.401102245e-01   -2.830990255e-01   -5.050618649e-01    0.000000000e+00    0.000000000e+00    0.000000000e+00    0.000000000e+00
     2550000000   -1.420709640e-01    1.255103648e-01   -2.159226499e-02   -3.352765441e-01    0.000000000e+00    0.000000000e+00    0.000000000e+00    0.000000000e+00
     2600000000    4.004046693e-02    3.606882393e-01    2.394052893e-01   -3.902253807e-01    0.000000000e+00    0.000000000e+00    0.000000000e+00    0.000000000e+00
     2650000000    3.294292390e-01    2.573114336e-01    3.832707405e-01   -3.743444681e-01    0.000000000e+00    0.000000000e+00    0.000000000e+00    0.000000000e+00
     2700000000    3.987787962e-01   -1.379570737e-02    5.061890483e-01   -2.934656739e-01    0.000000000e+00    0.000000000e+00    0.000000000e+00    0.000000000e+00
     2750000000    2.479557097e-01   -2.106136978e-01    6.109992862e-01   -1.851262748e-01    0.000000000e+00    0.000000000e+00    0.000000000e+00    0.000000000e+00
     2800000000    4.346387833e-02   -2.107170969e-01    6.915735602e-01   -5.946156755e-02    0.000000000e+00    0.000000000e+00    0.000000000e+00    0.000000000e+00
     2850000000   -5.970131233e-02   -9.038246423e-02    7.383711338e-01    6.118062139e-02    0.000000000e+00    0.000000000e+00    0.000000000e+00    0.000000000e+00
     2900000000   -4.044330865e-02    2.965940349e-02    7.177841663e-01    1.881601959e-01    0.000000000e+00    0.000000000e+00    0.000000000e+00    0.000000000e+00
     2950000000    1.541566569e-02    7.125364244e-02    6.383444667e-01    3.574663103e-01    0.000000000e+00    0.000000000e+00    0.000000000e+00    0.000000000e+00
     3000000000    1.000210717e-01    1.229588911e-01    5.952974558e-01    5.135616064e-01    0.000000000e+00    0.000000000e+00    0.000000000e+00    0.000000000e+00
     3050000000    2.122870982e-01    6.439262629e-02    4.950281978e-01    6.285794973e-01    0.000000000e+00    0.000000000e+00    0.000000000e+00    0.000000000e+00
     3100000000    2.284655571e-01   -6.131841615e-02    3.557534218e-01    7.393921018e-01    0.000000000e+00    0.000000000e+00    0.000000000e+00    0.000000000e+00
     3150000000    1.378204077e-01   -1.402719617e-01    2.273168415e-01    8.231695890e-01    0.000000000e+00    0.000000000e+00    0.000000000e+00    0.000000000e+00
     3200000000    4.373344779e-02   -1.077954099e-01    8.728768677e-02    8.479495049e-01    0.000000000e+00    0.000000000e+00    0.000000000e+00    0.000000000e+00
     3250000000    2.799984813e-02   -3.265163302e-02   -7.950832695e-02    8.366628885e-01    0.000000000e+00    0.000000000e+00    0.000000000e+00    0.000000000e+00
     3300000000    6.151499972e-02    7.067457307e-03   -2.378256172e-01    8.021984696e-01    0.000000000e+00    0.000000000e+00    0.000000000e+00    0.000000000e+00
     3350000000    9.000404924e-02    1.343211439e-02   -3.829995692e-01    7.354581952e-01    0.000000000e+00    0.000000000e+00    0.000000000e+00    0.000000000e+00
     3400000000    9.404920787e-02    2.986576408e-02   -4.963248074e-01    6.521370411e-01    0.000000000e+00    0.000000000e+00    0.000000000e+00    0.000000000e+00
     3450000000    1.842000932e-01    9.411019087e-02   -5.195766091e-01    5.081796050e-01    0.000000000e+00    0.000000000e+00    0.000000000e+00    0.000000000e+00
     3500000000    2.759703994e-01   -8.194420487e-03   -5.838471055e-01    2.745582461e-01    0.000000000e+00    0.000000000e+00    0.000000000e+00    0.000000000e+00
     3550000000    2.653276026e-01   -1.544180810e-01   -6.567098498e-01    2.437028475e-02    0.000000000e+00    0.000000000e+00    0.000000000e+00    0.000000000e+00
     3600000000    1.436131001e-01   -1.950188428e-01   -7.273787856e-01   -1.458641738e-01    0.000000000e+00    0.000000000e+00    0.000000000e+00    0.000000000e+00
     3650000000    7.529066503e-02   -1.671356261e-01   -7.161375284e-01   -3.058775961e-01    0.000000000e+00    0.000000000e+00    0.000000000e+00    0.000000000e+00
     3700000000    2.464783564e-02   -1.325726509e-01   -6.603079438e-01   -4.779933095e-01    0.000000000e+00    0.000000000e+00    0.000000000e+00    0.000000000e+00
     3750000000   -1.226211525e-02   -6.158692390e-02   -5.866541862e-01   -6.299626827e-01    0.000000000e+00    0.000000000e+00    0.000000000e+00    0.000000000e+00
     3800000000    1.924142987e-02    2.168476209e-02   -4.755522907e-01   -7.293896079e-01    0.000000000e+00    0.000000000e+00    0.000000000e+00    0.000000000e+00
     3850000000    8.460531384e-02    3.776365146e-02   -3.072749674e-01   -8.060628176e-01    0.000000000e+00    0.000000000e+00    0.000000000e+00    0.000000000e+00
     3900000000    9.963610768e-02    3.262292221e-02   -1.332703680e-01   -8.637960553e-01    0.000000000e+00    0.000000000e+00    0.000000000e+00    0.000000000e+00
     3950000000    1.336862743e-01    8.390688151e-02    3.532729670e-02   -8.619246483e-01    0.000000000e+00    0.000000000e+00    0.000000000e+00    0.000000000e+00
     4000000000    2.714349031e-01    8.344087750e-02    2.406604886e-01   -8.114095330e-01    0.000000000e+00    0.000000000e+00    0.000000000e+00    0.000000000e+00
     4050000000    3.807545900e-01   -7.807195187e-02    4.450718760e-01   -7.609640956e-01    0.000000000e+00    0.000000000e+00    0.000000000e+00    0.000000000e+00
     4100000000    3.090621531e-01   -2.938819230e-01    5.923597813e-01   -6.808564067e-01    0.000000000e+00    0.000000000e+00    0.000000000e+00    0.000000000e+00
     4150000000    8.929998428e-02   -3.771757185e-01    7.197955251e-01   -5.331986547e-01    0.000000000e+00    0.000000000e+00    0.000000000e+00    0.000000000e+00
     4200000000   -9.154015034e-02   -2.733944356e-01    8.499585986e-01   -3.762533069e-01    0.000000000e+00    0.000000000e+00    0.000000000e+00    0.000000000e+00
     4250000000   -1.348897666e-01   -1.350861490e-01    9.135444760e-01   -2.302387059e-01    0.000000000e+00    0.000000000e+00    0.000000000e+00    0.000000000e+00
     4300000000   -1.501306146e-01   -3.192041814e-02    9.141126871e-01   -4.011431709e-02    0.000000000e+00    0.000000000e+00    0.000000000e+00    0.000000000e+00
     4350000000   -1.224477664e-01    1.414087564e-01    8.967563510e-01    1.390563846e-01    0.000000000e+00    0.000000000e+00    0.000000000e+00    0.000000000e+00
     4400000000    9.475409240e-02    2.829742432e-01    8.171882033e-01    3.067640066e-01    0.000000000e+00    0.000000000e+00    0.000000000e+00    0.000000000e+00
     4450000000    3.825836778e-01    1.742847860e-01    6.885977983e-01    4.777083099e-01    0.000000000e+00    0.000000000e+00    0.000000000e+00    0.000000000e+00
     4500000000    4.703693390e-01   -1.182895601e-01    5.517658591e-01    6.416525245e-01    0.000000000e+00    0.000000000e+00    0.000000000e+00    0.000000000e+00
     4550000000    3.138293922e-01   -3.443304002e-01    3.816843331e-01    7.458233833e-01    0.000000000e+00    0.000000000e+00    0.000000000e+00    0.000000000e+00
     4600000000    1.074930280e-01   -3.515943587e-01    1.718740612e-01    8.363707662e-01    0.000000000e+00    0.000000000e+00    0.000000000e+00    0.000000000e+00
     4650000000    3.358928114e-02   -3.024824858e-01   -2.392554097e-02    8.748725057e-01    0.000000000e+00    0.000000000e+00    0.000000000e+00    0.000000000e+00
     4700000000   -7.044582814e-02   -2.404047996e-01   -2.558705211e-01    8.839219213e-01    0.000000000e+00    0.000000000e+00    0.000000000e+00    0.000000000e+00
     4750000000   -1.123553813e-01   -1.614161283e-01   -4.375201166e-01    8.193296194e-01    0.000000000e+00    0.000000000e+00    0.000000000e+00    0.000000000e+00
     4800000000   -1.350355595e-01    4.634022713e-03   -6.951991916e-01    7.364412546e-01    0.000000000e+00    0.000000000e+00    0.000000000e+00    0.000000000e+00
     4850000000    5.341067538e-02    1.401431113e-01   -9.354095459e-01    7.047396302e-01    0.000000000e+00    0.000000000e+00    0.000000000e+00    0.000000000e+00
     4900000000    2.500048280e-01    1.176698040e-02   -1.046273708e+00    6.630144715e-01    0.000000000e+00    0.000000000e+00    0.000000000e+00    0.000000000e+00
     4950000000    1.970335245e-01   -1.854412705e-01   -1.055029869e+00    5.335102677e-01    0.000000000e+00    0.000000000e+00    0.000000000e+00    0.000000000e+00
     5000000000    2.004012465e-02   -1.635595858e-01   -1.070391178e+00    3.416702151e-01    0.000000000e+00    0.000000000e+00    0.000000000e+00    0.000000000e+00
     5050000000    4.732438177e-02    9.417064488e-03   -1.087428808e+00    5.785582215e-02    0.000000000e+00    0.000000000e+00    0.000000000e+00    0.000000000e+00
     5100000000    2.456333041e-01   -1.912130043e-02   -1.086590886e+00   -4.717565700e-02    0.000000000e+00    0.000000000e+00    0.000000000e+00    0.000000000e+00
     5150000000    2.669123113e-01   -2.408369184e-01   -9.939681292e-01   -2.161844969e-01    0.000000000e+00    0.000000000e+00    0.000000000e+00    0.000000000e+00
     5200000000    6.618839502e-02   -3.458068073e-01   -8.737221360e-01   -3.843220770e-01    0.000000000e+00    0.000000000e+00    0.000000000e+00    0.000000000e+00
     5250000000   -8.071948588e-02   -2.289083600e-01   -7.398644686e-01   -5.569719672e-01    0.000000000e+00    0.000000000e+00    0.000000000e+00    0.000000000e+00
     5300000000   -4.135861620e-02   -1.382379532e-01   -5.946089625e-01   -6.965787411e-01    0.000000000e+00    0.000000000e+00    0.000000000e+00    0.000000000e+00
     5350000000   -5.642644688e-02   -1.817730814e-01   -4.476119876e-01   -7.541365623e-01    0.000000000e+00    0.000000000e+00    0.000000000e+00    0.000000000e+00
     5400000000   -1.617076546e-01   -1.095456183e-01   -2.312472910e-01   -8.053014278e-01    0.000000000e+00    0.000000000e+00    0.000000000e+00    0.000000000e+00
     5450000000   -1.043458581e-01    7.267113030e-02   -5.133206770e-02   -8.509681225e-01    0.000000000e+00    0.000000000e+00    0.000000000e+00    0.000000000e+00
     5500000000    1.192118302e-01    7.003439218e-02    8.178585768e-02   -8.135290146e-01    0.000000000e+00    0.000000000e+00    0.000000000e+00    0.000000000e+00
     5550000000    1.828030199e-01   -1.257199645e-01    2.508411407e-01   -6.923317909e-01    0.000000000e+00    0.000000000e+00    0.000000000e+00    0.000000000e+00
     5600000000    4.553122073e-02   -2.032564431e-01    4.120204449e-01   -5.554977059e-01    0.000000000e+00    0.000000000e+00    0.000000000e+00    0.000000000e+00
     5650000000    2.736208774e-02   -1.330799460e-01    5.584912896e-01   -4.071406424e-01    0.000000000e+00    0.000000000e+00    0.000000000e+00    0.000000000e+00
     5700000000    8.330702037e-02   -1.394622922e-01    6.704540253e-01   -2.617863715e-01    0.000000000e+00    0.000000000e+00    0.000000000e+00    0.000000000e+00
     5750000000    1.190019399e-01   -2.255035043e-01    7.186040282e-01   -1.024182811e-01    0.000000000e+00    0.000000000e+00    0.000000000e+00    0.000000000e+00
     5800000000    5.328464508e-02   -3.205542564e-01    7.367862463e-01    6.665476412e-02    0.000000000e+00    0.000000000e+00    0.000000000e+00    0.000000000e+00
     5850000000   -6.875818223e-02   -3.167965114e-01    7.042888999e-01    2.301092595e-01    0.000000000e+00    0.000000000e+00    0.000000000e+00    0.000000000e+00
     5900000000   -9.172574431e-02   -2.223661393e-01    6.571103930e-01    4.008029699e-01    0.000000000e+00    0.000000000e+00    0.000000000e+00    0.000000000e+00
     5950000000   -2.326586470e-02   -2.306458503e-01    5.897338986e-01    5.139487386e-01    0.000000000e+00    0.000000000e+00    0.000000000e+00    0.000000000e+00
     6000000000   -1.304299086e-01   -2.695042491e-01    7.519193292e-01    5.511422083e-02    0.000000000e+00    0.000000000e+00    0.000000000e+00    0.000000000e+00
