! NanoVNA-App									
! Date: 2024-03-21 03:06:02									
! Start: 1GHz Stop: 6GHz Points: 101									
! S-Parameter data: F S11 S21 S12 S22									
# Hz S RI R 50									
!	Frequency	S11_Real	S11_Imag	S21_Real	S21_Imag	S12_Real	S12_Imag	S22_Real	S22_Imag
	1000000000	1.21E-01	-2.26E-02	-5.56E-01	-8.76E-01	0.00E+00	0.00E+00	0.00E+00	0.00E+00
	1050000000	5.25E-02	-2.20E-02	-3.76E-01	-9.64E-01	0.00E+00	0.00E+00	0.00E+00	0.00E+00
	1100000000	4.98E-02	-1.13E-02	-1.69E-01	-1.02E+00	0.00E+00	0.00E+00	0.00E+00	0.00E+00
	1150000000	2.97E-02	-4.70E-02	3.57E-02	-1.03E+00	0.00E+00	0.00E+00	0.00E+00	0.00E+00
	1200000000	-5.06E-02	-3.68E-02	2.43E-01	-9.90E-01	0.00E+00	0.00E+00	0.00E+00	0.00E+00
	1250000000	-7.82E-02	6.60E-02	4.49E-01	-9.10E-01	0.00E+00	0.00E+00	0.00E+00	0.00E+00
	1300000000	1.45E-02	1.34E-01	6.30E-01	-8.03E-01	0.00E+00	0.00E+00	0.00E+00	0.00E+00
	1350000000	9.90E-02	6.60E-02	7.72E-01	-6.54E-01	0.00E+00	0.00E+00	0.00E+00	0.00E+00
	1400000000	7.18E-02	5.10E-03	9.01E-01	-4.83E-01	0.00E+00	0.00E+00	0.00E+00	0.00E+00
	1450000000	1.70E-02	2.33E-02	9.74E-01	-3.01E-01	0.00E+00	0.00E+00	0.00E+00	0.00E+00
	1500000000	5.32E-02	6.51E-02	1.00E+00	-1.02E-01	0.00E+00	0.00E+00	0.00E+00	0.00E+00
	1550000000	9.70E-02	6.52E-03	9.92E-01	1.02E-01	0.00E+00	0.00E+00	0.00E+00	0.00E+00
	1600000000	1.50E-02	-5.78E-02	9.44E-01	2.93E-01	0.00E+00	0.00E+00	0.00E+00	0.00E+00
	1650000000	-9.18E-02	3.53E-02	8.58E-01	4.64E-01	0.00E+00	0.00E+00	0.00E+00	0.00E+00
	1700000000	-2.52E-02	1.94E-01	7.32E-01	6.07E-01	0.00E+00	0.00E+00	0.00E+00	0.00E+00
	1750000000	1.58E-01	1.96E-01	5.75E-01	7.40E-01	0.00E+00	0.00E+00	0.00E+00	0.00E+00
	1800000000	2.34E-01	4.20E-02	4.24E-01	8.47E-01	0.00E+00	0.00E+00	0.00E+00	0.00E+00
	1850000000	1.52E-01	-6.99E-02	2.70E-01	9.02E-01	0.00E+00	0.00E+00	0.00E+00	0.00E+00
	1900000000	6.57E-02	-5.31E-02	1.23E-01	9.16E-01	0.00E+00	0.00E+00	0.00E+00	0.00E+00
	1950000000	5.59E-02	-2.08E-02	5.88E-03	8.96E-01	0.00E+00	0.00E+00	0.00E+00	0.00E+00
	2000000000	7.78E-02	-2.26E-02	-4.95E-02	8.14E-01	0.00E+00	0.00E+00	0.00E+00	0.00E+00
	2050000000	6.19E-02	-1.94E-01	-3.92E-02	5.65E-01	0.00E+00	0.00E+00	0.00E+00	0.00E+00
	2100000000	-3.99E-01	-4.86E-02	-2.81E-01	2.05E-01	0.00E+00	0.00E+00	0.00E+00	0.00E+00
	2150000000	-2.00E-01	4.65E-01	-5.01E-01	6.68E-02	0.00E+00	0.00E+00	0.00E+00	0.00E+00
	2200000000	2.57E-01	4.86E-01	-6.04E-01	-5.22E-02	0.00E+00	0.00E+00	0.00E+00	0.00E+00
	2250000000	5.11E-01	1.87E-01	-6.43E-01	-1.61E-01	0.00E+00	0.00E+00	0.00E+00	0.00E+00
	2300000000	4.66E-01	-1.56E-01	-6.17E-01	-2.70E-01	0.00E+00	0.00E+00	0.00E+00	0.00E+00
	2350000000	2.22E-01	-3.48E-01	-5.51E-01	-3.79E-01	0.00E+00	0.00E+00	0.00E+00	0.00E+00
	2400000000	-6.73E-02	-3.23E-01	-4.66E-01	-4.75E-01	0.00E+00	0.00E+00	0.00E+00	0.00E+00
	2450000000	-2.40E-01	-9.80E-02	-3.77E-01	-5.37E-01	0.00E+00	0.00E+00	0.00E+00	0.00E+00
	2500000000	-1.37E-01	1.24E-01	-3.14E-01	-5.06E-01	0.00E+00	0.00E+00	0.00E+00	0.00E+00
	2550000000	-1.75E-01	1.38E-01	-4.26E-02	-3.45E-01	0.00E+00	0.00E+00	0.00E+00	0.00E+00
	2600000000	3.66E-02	3.83E-01	2.03E-01	-4.07E-01	0.00E+00	0.00E+00	0.00E+00	0.00E+00
	2650000000	3.39E-01	2.76E-01	3.48E-01	-3.86E-01	0.00E+00	0.00E+00	0.00E+00	0.00E+00
	2700000000	4.19E-01	-9.95E-03	4.72E-01	-3.10E-01	0.00E+00	0.00E+00	0.00E+00	0.00E+00
	2750000000	2.70E-01	-2.21E-01	5.82E-01	-1.99E-01	0.00E+00	0.00E+00	0.00E+00	0.00E+00
	2800000000	4.47E-02	-2.39E-01	6.71E-01	-8.11E-02	0.00E+00	0.00E+00	0.00E+00	0.00E+00
	2850000000	-7.73E-02	-1.10E-01	7.18E-01	4.33E-02	0.00E+00	0.00E+00	0.00E+00	0.00E+00
	2900000000	-6.49E-02	3.20E-02	7.04E-01	1.67E-01	0.00E+00	0.00E+00	0.00E+00	0.00E+00
	2950000000	6.11E-03	8.99E-02	6.31E-01	3.39E-01	0.00E+00	0.00E+00	0.00E+00	0.00E+00
	3000000000	1.09E-01	1.38E-01	5.87E-01	4.96E-01	0.00E+00	0.00E+00	0.00E+00	0.00E+00
	3050000000	2.26E-01	6.78E-02	4.94E-01	6.09E-01	0.00E+00	0.00E+00	0.00E+00	0.00E+00
	3100000000	2.39E-01	-6.74E-02	3.62E-01	7.19E-01	0.00E+00	0.00E+00	0.00E+00	0.00E+00
	3150000000	1.43E-01	-1.50E-01	2.37E-01	8.05E-01	0.00E+00	0.00E+00	0.00E+00	0.00E+00
	3200000000	4.21E-02	-1.18E-01	9.75E-02	8.32E-01	0.00E+00	0.00E+00	0.00E+00	0.00E+00
	3250000000	2.03E-02	-3.79E-02	-6.35E-02	8.22E-01	0.00E+00	0.00E+00	0.00E+00	0.00E+00
	3300000000	5.46E-02	1.02E-02	-2.19E-01	7.89E-01	0.00E+00	0.00E+00	0.00E+00	0.00E+00
	3350000000	8.94E-02	1.85E-02	-3.66E-01	7.28E-01	0.00E+00	0.00E+00	0.00E+00	0.00E+00
	3400000000	9.56E-02	3.24E-02	-4.81E-01	6.47E-01	0.00E+00	0.00E+00	0.00E+00	0.00E+00
	3450000000	1.85E-01	9.71E-02	-5.06E-01	5.07E-01	0.00E+00	0.00E+00	0.00E+00	0.00E+00
	3500000000	2.79E-01	-5.45E-03	-5.68E-01	2.80E-01	0.00E+00	0.00E+00	0.00E+00	0.00E+00
	3550000000	2.72E-01	-1.49E-01	-6.39E-01	3.74E-02	0.00E+00	0.00E+00	0.00E+00	0.00E+00
	3600000000	1.53E-01	-1.99E-01	-7.10E-01	-1.35E-01	0.00E+00	0.00E+00	0.00E+00	0.00E+00
	3650000000	7.72E-02	-1.76E-01	-7.02E-01	-2.93E-01	0.00E+00	0.00E+00	0.00E+00	0.00E+00
	3700000000	1.93E-02	-1.38E-01	-6.47E-01	-4.70E-01	0.00E+00	0.00E+00	0.00E+00	0.00E+00
	3750000000	-1.86E-02	-6.21E-02	-5.79E-01	-6.18E-01	0.00E+00	0.00E+00	0.00E+00	0.00E+00
	3800000000	1.32E-02	2.62E-02	-4.72E-01	-7.17E-01	0.00E+00	0.00E+00	0.00E+00	0.00E+00
	3850000000	8.23E-02	4.52E-02	-3.09E-01	-7.92E-01	0.00E+00	0.00E+00	0.00E+00	0.00E+00
	3900000000	1.03E-01	4.05E-02	-1.30E-01	-8.52E-01	0.00E+00	0.00E+00	0.00E+00	0.00E+00
	3950000000	1.43E-01	8.60E-02	3.40E-02	-8.52E-01	0.00E+00	0.00E+00	0.00E+00	0.00E+00
	4000000000	2.76E-01	7.86E-02	2.39E-01	-8.02E-01	0.00E+00	0.00E+00	0.00E+00	0.00E+00
	4050000000	3.80E-01	-8.40E-02	4.43E-01	-7.54E-01	0.00E+00	0.00E+00	0.00E+00	0.00E+00
	4100000000	3.04E-01	-2.97E-01	5.87E-01	-6.79E-01	0.00E+00	0.00E+00	0.00E+00	0.00E+00
	4150000000	8.57E-02	-3.77E-01	7.16E-01	-5.32E-01	0.00E+00	0.00E+00	0.00E+00	0.00E+00
	4200000000	-9.40E-02	-2.72E-01	8.48E-01	-3.76E-01	0.00E+00	0.00E+00	0.00E+00	0.00E+00
	4250000000	-1.36E-01	-1.32E-01	9.10E-01	-2.35E-01	0.00E+00	0.00E+00	0.00E+00	0.00E+00
	4300000000	-1.49E-01	-3.07E-02	9.11E-01	-5.01E-02	0.00E+00	0.00E+00	0.00E+00	0.00E+00
	4350000000	-1.22E-01	1.38E-01	8.96E-01	1.31E-01	0.00E+00	0.00E+00	0.00E+00	0.00E+00
	4400000000	9.24E-02	2.78E-01	8.17E-01	2.98E-01	0.00E+00	0.00E+00	0.00E+00	0.00E+00
	4450000000	3.79E-01	1.71E-01	6.88E-01	4.71E-01	0.00E+00	0.00E+00	0.00E+00	0.00E+00
	4500000000	4.68E-01	-1.21E-01	5.57E-01	6.29E-01	0.00E+00	0.00E+00	0.00E+00	0.00E+00
	4550000000	3.13E-01	-3.46E-01	3.86E-01	7.40E-01	0.00E+00	0.00E+00	0.00E+00	0.00E+00
	4600000000	1.08E-01	-3.52E-01	1.81E-01	8.29E-01	0.00E+00	0.00E+00	0.00E+00	0.00E+00
	4650000000	3.50E-02	-3.04E-01	-1.14E-02	8.69E-01	0.00E+00	0.00E+00	0.00E+00	0.00E+00
	4700000000	-6.59E-02	-2.42E-01	-2.45E-01	8.83E-01	0.00E+00	0.00E+00	0.00E+00	0.00E+00
	4750000000	-1.07E-01	-1.67E-01	-4.28E-01	8.17E-01	0.00E+00	0.00E+00	0.00E+00	0.00E+00
	4800000000	-1.31E-01	-2.27E-03	-6.86E-01	7.36E-01	0.00E+00	0.00E+00	0.00E+00	0.00E+00
	4850000000	5.57E-02	1.32E-01	-9.21E-01	7.12E-01	0.00E+00	0.00E+00	0.00E+00	0.00E+00
	4900000000	2.50E-01	4.80E-03	-1.03E+00	6.74E-01	0.00E+00	0.00E+00	0.00E+00	0.00E+00
	4950000000	1.94E-01	-1.90E-01	-1.04E+00	5.45E-01	0.00E+00	0.00E+00	0.00E+00	0.00E+00
	5000000000	1.96E-02	-1.64E-01	-1.06E+00	3.53E-01	0.00E+00	0.00E+00	0.00E+00	0.00E+00
	5050000000	5.10E-02	1.15E-02	-1.08E+00	7.14E-02	0.00E+00	0.00E+00	0.00E+00	0.00E+00
	5100000000	2.52E-01	-1.94E-02	-1.08E+00	-2.57E-02	0.00E+00	0.00E+00	0.00E+00	0.00E+00
	5150000000	2.72E-01	-2.42E-01	-9.90E-01	-1.91E-01	0.00E+00	0.00E+00	0.00E+00	0.00E+00
	5200000000	7.19E-02	-3.48E-01	-8.71E-01	-3.69E-01	0.00E+00	0.00E+00	0.00E+00	0.00E+00
	5250000000	-7.58E-02	-2.33E-01	-7.44E-01	-5.39E-01	0.00E+00	0.00E+00	0.00E+00	0.00E+00
	5300000000	-3.67E-02	-1.46E-01	-6.01E-01	-6.81E-01	0.00E+00	0.00E+00	0.00E+00	0.00E+00
	5350000000	-5.55E-02	-1.86E-01	-4.55E-01	-7.40E-01	0.00E+00	0.00E+00	0.00E+00	0.00E+00
	5400000000	-1.59E-01	-1.11E-01	-2.44E-01	-7.94E-01	0.00E+00	0.00E+00	0.00E+00	0.00E+00
	5450000000	-9.87E-02	7.16E-02	-6.16E-02	-8.42E-01	0.00E+00	0.00E+00	0.00E+00	0.00E+00
	5500000000	1.25E-01	6.59E-02	6.60E-02	-8.06E-01	0.00E+00	0.00E+00	0.00E+00	0.00E+00
	5550000000	1.85E-01	-1.29E-01	2.25E-01	-6.96E-01	0.00E+00	0.00E+00	0.00E+00	0.00E+00
	5600000000	4.59E-02	-2.03E-01	3.96E-01	-5.59E-01	0.00E+00	0.00E+00	0.00E+00	0.00E+00
	5650000000	3.84E-02	-1.38E-01	5.50E-01	-4.10E-01	0.00E+00	0.00E+00	0.00E+00	0.00E+00
	5700000000	8.64E-02	-1.44E-01	6.58E-01	-2.75E-01	0.00E+00	0.00E+00	0.00E+00	0.00E+00
	5750000000	1.24E-01	-2.27E-01	7.10E-01	-1.13E-01	0.00E+00	0.00E+00	0.00E+00	0.00E+00
	5800000000	5.70E-02	-3.23E-01	7.31E-01	5.01E-02	0.00E+00	0.00E+00	0.00E+00	0.00E+00
	5850000000	-5.86E-02	-3.20E-01	7.01E-01	2.17E-01	0.00E+00	0.00E+00	0.00E+00	0.00E+00
	5900000000	-8.17E-02	-2.26E-01	6.57E-01	3.84E-01	0.00E+00	0.00E+00	0.00E+00	0.00E+00
	5950000000	-1.11E-02	-2.36E-01	5.93E-01	4.96E-01	0.00E+00	0.00E+00	0.00E+00	0.00E+00
	6000000000	-1.23E-01	-2.76E-01	7.42E-01	4.26E-02	0.00E+00	0.00E+00	0.00E+00	0.00E+00
