! NanoVNA-App
! Date: 2024-03-20 19:54:45
! Start: 1GHz Stop: 6GHz Points: 101
! S-Parameter data: F S11 S21 S12 S22
# Hz S RI R 50
!     Frequency           S11_Real           S11_Imag           S21_Real           S21_Imag           S12_Real           S12_Imag           S22_Real           S22_Imag
     1000000000    1.239559948e-01   -2.419807389e-02   -5.519078970e-01   -8.801425695e-01    0.000000000e+00    0.000000000e+00    0.000000000e+00    0.000000000e+00
     1050000000    5.371649936e-02   -2.357661538e-02   -3.706194460e-01   -9.665413499e-01    0.000000000e+00    0.000000000e+00    0.000000000e+00    0.000000000e+00
     1100000000    5.052998289e-02   -1.062796917e-02   -1.628647596e-01   -1.019426227e+00    0.000000000e+00    0.000000000e+00    0.000000000e+00    0.000000000e+00
     1150000000    3.216390312e-02   -4.532712698e-02    4.205273464e-02   -1.031406045e+00    0.000000000e+00    0.000000000e+00    0.000000000e+00    0.000000000e+00
     1200000000   -4.741218686e-02   -3.613802791e-02    2.488296181e-01   -9.882531762e-01    0.000000000e+00    0.000000000e+00    0.000000000e+00    0.000000000e+00
     1250000000   -7.585645467e-02    6.661198288e-02    4.532614946e-01   -9.072576761e-01    0.000000000e+00    0.000000000e+00    0.000000000e+00    0.000000000e+00
     1300000000    1.683646813e-02    1.360312253e-01    6.334026456e-01   -7.982860804e-01    0.000000000e+00    0.000000000e+00    0.000000000e+00    0.000000000e+00
     1350000000    1.033165604e-01    6.686414033e-02    7.743503451e-01   -6.494759321e-01    0.000000000e+00    0.000000000e+00    0.000000000e+00    0.000000000e+00
     1400000000    7.670806348e-02    5.215791520e-03    9.039340019e-01   -4.785902202e-01    0.000000000e+00    0.000000000e+00    0.000000000e+00    0.000000000e+00
     1450000000    1.970677264e-02    2.102158219e-02    9.752586484e-01   -2.958037853e-01    0.000000000e+00    0.000000000e+00    0.000000000e+00    0.000000000e+00
     1500000000    5.260255188e-02    6.382519752e-02    1.001494169e+00   -9.631352872e-02    0.000000000e+00    0.000000000e+00    0.000000000e+00    0.000000000e+00
     1550000000    9.506925941e-02    7.933825254e-03    9.900677204e-01    1.057429016e-01    0.000000000e+00    0.000000000e+00    0.000000000e+00    0.000000000e+00
     1600000000    1.332648098e-02   -5.381380394e-02    9.410459995e-01    2.951290309e-01    0.000000000e+00    0.000000000e+00    0.000000000e+00    0.000000000e+00
     1650000000   -9.118440002e-02    4.196509719e-02    8.549337387e-01    4.639335275e-01    0.000000000e+00    0.000000000e+00    0.000000000e+00    0.000000000e+00
     1700000000   -2.080263570e-02    2.000243962e-01    7.252595425e-01    6.075468659e-01    0.000000000e+00    0.000000000e+00    0.000000000e+00    0.000000000e+00
     1750000000    1.659580469e-01    1.986346543e-01    5.685078502e-01    7.382918596e-01    0.000000000e+00    0.000000000e+00    0.000000000e+00    0.000000000e+00
     1800000000    2.420486510e-01    3.950546309e-02    4.170042872e-01    8.458439112e-01    0.000000000e+00    0.000000000e+00    0.000000000e+00    0.000000000e+00
     1850000000    1.534176171e-01   -7.756335288e-02    2.634952664e-01    8.999176621e-01    0.000000000e+00    0.000000000e+00    0.000000000e+00    0.000000000e+00
     1900000000    5.962864682e-02   -5.851825327e-02    1.171154380e-01    9.111635685e-01    0.000000000e+00    0.000000000e+00    0.000000000e+00    0.000000000e+00
     1950000000    4.657765105e-02   -1.915633120e-02   -5.947114551e-04    8.895014524e-01    0.000000000e+00    0.000000000e+00    0.000000000e+00    0.000000000e+00
     2000000000    6.915348023e-02   -1.457463298e-02   -5.638629198e-02    8.097466826e-01    0.000000000e+00    0.000000000e+00    0.000000000e+00    0.000000000e+00
     2050000000    6.450019777e-02   -1.762579232e-01   -3.674064577e-02    5.757102966e-01    0.000000000e+00    0.000000000e+00    0.000000000e+00    0.000000000e+00
     2100000000   -3.894565403e-01   -4.596525803e-02   -2.629975080e-01    2.014401108e-01    0.000000000e+00    0.000000000e+00    0.000000000e+00    0.000000000e+00
     2150000000   -1.910437644e-01    4.680020809e-01   -4.867736101e-01    5.796696618e-02    0.000000000e+00    0.000000000e+00    0.000000000e+00    0.000000000e+00
     2200000000    2.678761780e-01    4.823245704e-01   -5.894926190e-01   -5.898854509e-02    0.000000000e+00    0.000000000e+00    0.000000000e+00    0.000000000e+00
     2250000000    5.151450038e-01    1.743934751e-01   -6.233407855e-01   -1.680807471e-01    0.000000000e+00    0.000000000e+00    0.000000000e+00    0.000000000e+00
     2300000000    4.587126672e-01   -1.703506410e-01   -5.958130956e-01   -2.762774527e-01    0.000000000e+00    0.000000000e+00    0.000000000e+00    0.000000000e+00
     2350000000    2.013058364e-01   -3.527290225e-01   -5.265880227e-01   -3.834018111e-01    0.000000000e+00    0.000000000e+00    0.000000000e+00    0.000000000e+00
     2400000000   -8.833257854e-02   -3.040374517e-01   -4.386675954e-01   -4.745411873e-01    0.000000000e+00    0.000000000e+00    0.000000000e+00    0.000000000e+00
     2450000000   -2.374700010e-01   -6.829457730e-02   -3.487253487e-01   -5.343717933e-01    0.000000000e+00    0.000000000e+00    0.000000000e+00    0.000000000e+00
     2500000000   -1.143952906e-01    1.396764964e-01   -2.811582088e-01   -5.036885738e-01    0.000000000e+00    0.000000000e+00    0.000000000e+00    0.000000000e+00
     2550000000   -1.432495862e-01    1.213017255e-01   -2.231677435e-02   -3.290597200e-01    0.000000000e+00    0.000000000e+00    0.000000000e+00    0.000000000e+00
     2600000000    3.664565086e-02    3.647354245e-01    2.449296266e-01   -3.878045976e-01    0.000000000e+00    0.000000000e+00    0.000000000e+00    0.000000000e+00
     2650000000    3.313382566e-01    2.605762482e-01    3.895237148e-01   -3.746659756e-01    0.000000000e+00    0.000000000e+00    0.000000000e+00    0.000000000e+00
     2700000000    4.001449049e-01   -1.503284462e-02    5.072820783e-01   -2.971520126e-01    0.000000000e+00    0.000000000e+00    0.000000000e+00    0.000000000e+00
     2750000000    2.494953424e-01   -2.123994529e-01    6.136192083e-01   -1.867066771e-01    0.000000000e+00    0.000000000e+00    0.000000000e+00    0.000000000e+00
     2800000000    4.283931106e-02   -2.118516266e-01    6.932636499e-01   -6.016944721e-02    0.000000000e+00    0.000000000e+00    0.000000000e+00    0.000000000e+00
     2850000000   -6.059274450e-02   -9.111339599e-02    7.389326692e-01    5.977137014e-02    0.000000000e+00    0.000000000e+00    0.000000000e+00    0.000000000e+00
     2900000000   -4.208939150e-02    3.083895706e-02    7.186727524e-01    1.823119372e-01    0.000000000e+00    0.000000000e+00    0.000000000e+00    0.000000000e+00
     2950000000    1.649538986e-02    7.333307713e-02    6.395781636e-01    3.564529717e-01    0.000000000e+00    0.000000000e+00    0.000000000e+00    0.000000000e+00
     3000000000    1.027460098e-01    1.233418658e-01    5.905868411e-01    5.100482702e-01    0.000000000e+00    0.000000000e+00    0.000000000e+00    0.000000000e+00
     3050000000    2.132867575e-01    6.354593486e-02    4.900936186e-01    6.281771660e-01    0.000000000e+00    0.000000000e+00    0.000000000e+00    0.000000000e+00
     3100000000    2.283246517e-01   -6.355178356e-02    3.538192511e-01    7.375221252e-01    0.000000000e+00    0.000000000e+00    0.000000000e+00    0.000000000e+00
     3150000000    1.365932971e-01   -1.407605112e-01    2.241564989e-01    8.220400214e-01    0.000000000e+00    0.000000000e+00    0.000000000e+00    0.000000000e+00
     3200000000    4.207985848e-02   -1.072900221e-01    8.243958652e-02    8.475577235e-01    0.000000000e+00    0.000000000e+00    0.000000000e+00    0.000000000e+00
     3250000000    2.685891651e-02   -3.133705258e-02   -8.016831428e-02    8.360607028e-01    0.000000000e+00    0.000000000e+00    0.000000000e+00    0.000000000e+00
     3300000000    6.208587438e-02    9.742577560e-03   -2.426625788e-01    8.002175689e-01    0.000000000e+00    0.000000000e+00    0.000000000e+00    0.000000000e+00
     3350000000    9.213661402e-02    1.403909829e-02   -3.856355548e-01    7.351969481e-01    0.000000000e+00    0.000000000e+00    0.000000000e+00    0.000000000e+00
     3400000000    9.608520567e-02    2.853800170e-02   -5.018419623e-01    6.496071219e-01    0.000000000e+00    0.000000000e+00    0.000000000e+00    0.000000000e+00
     3450000000    1.820597649e-01    9.238561243e-02   -5.244491100e-01    5.079987645e-01    0.000000000e+00    0.000000000e+00    0.000000000e+00    0.000000000e+00
     3500000000    2.738415301e-01   -8.034462109e-03   -5.846834183e-01    2.736180425e-01    0.000000000e+00    0.000000000e+00    0.000000000e+00    0.000000000e+00
     3550000000    2.647801340e-01   -1.554429084e-01   -6.572157145e-01    2.332815342e-02    0.000000000e+00    0.000000000e+00    0.000000000e+00    0.000000000e+00
     3600000000    1.418763250e-01   -1.945812106e-01   -7.297880650e-01   -1.486294568e-01    0.000000000e+00    0.000000000e+00    0.000000000e+00    0.000000000e+00
     3650000000    7.537193596e-02   -1.656370908e-01   -7.177928686e-01   -3.072409034e-01    0.000000000e+00    0.000000000e+00    0.000000000e+00    0.000000000e+00
     3700000000    2.636505663e-02   -1.321108192e-01   -6.608104110e-01   -4.807228148e-01    0.000000000e+00    0.000000000e+00    0.000000000e+00    0.000000000e+00
     3750000000   -1.090304088e-02   -6.278740615e-02   -5.879841447e-01   -6.307839751e-01    0.000000000e+00    0.000000000e+00    0.000000000e+00    0.000000000e+00
     3800000000    1.866471022e-02    2.018477581e-02   -4.772499204e-01   -7.303020358e-01    0.000000000e+00    0.000000000e+00    0.000000000e+00    0.000000000e+00
     3850000000    8.370026201e-02    3.608425334e-02   -3.102068007e-01   -8.044362664e-01    0.000000000e+00    0.000000000e+00    0.000000000e+00    0.000000000e+00
     3900000000    9.805995971e-02    3.305843472e-02   -1.329042315e-01   -8.642705679e-01    0.000000000e+00    0.000000000e+00    0.000000000e+00    0.000000000e+00
     3950000000    1.334441453e-01    8.546656370e-02    3.582707420e-02   -8.619707227e-01    0.000000000e+00    0.000000000e+00    0.000000000e+00    0.000000000e+00
     4000000000    2.721125185e-01    8.548668772e-02    2.432585508e-01   -8.104837537e-01    0.000000000e+00    0.000000000e+00    0.000000000e+00    0.000000000e+00
     4050000000    3.821687400e-01   -7.795500010e-02    4.476579130e-01   -7.593825459e-01    0.000000000e+00    0.000000000e+00    0.000000000e+00    0.000000000e+00
     4100000000    3.094609678e-01   -2.949330509e-01    5.924923420e-01   -6.808047295e-01    0.000000000e+00    0.000000000e+00    0.000000000e+00    0.000000000e+00
     4150000000    8.984690905e-02   -3.784030378e-01    7.207894921e-01   -5.311640501e-01    0.000000000e+00    0.000000000e+00    0.000000000e+00    0.000000000e+00
     4200000000   -9.189587086e-02   -2.740706801e-01    8.502942920e-01   -3.734624386e-01    0.000000000e+00    0.000000000e+00    0.000000000e+00    0.000000000e+00
     4250000000   -1.354338676e-01   -1.351017505e-01    9.132016301e-01   -2.294488102e-01    0.000000000e+00    0.000000000e+00    0.000000000e+00    0.000000000e+00
     4300000000   -1.509003192e-01   -3.018353693e-02    9.137128592e-01   -4.379100725e-02    0.000000000e+00    0.000000000e+00    0.000000000e+00    0.000000000e+00
     4350000000   -1.223219112e-01    1.418201178e-01    8.956180215e-01    1.434896439e-01    0.000000000e+00    0.000000000e+00    0.000000000e+00    0.000000000e+00
     4400000000    9.475941956e-02    2.838356197e-01    8.163103461e-01    3.089789748e-01    0.000000000e+00    0.000000000e+00    0.000000000e+00    0.000000000e+00
     4450000000    3.835071027e-01    1.743081361e-01    6.880534291e-01    4.802118838e-01    0.000000000e+00    0.000000000e+00    0.000000000e+00    0.000000000e+00
     4500000000    4.706438780e-01   -1.192714572e-01    5.507848263e-01    6.426041126e-01    0.000000000e+00    0.000000000e+00    0.000000000e+00    0.000000000e+00
     4550000000    3.134979010e-01   -3.450603485e-01    3.783020079e-01    7.489694953e-01    0.000000000e+00    0.000000000e+00    0.000000000e+00    0.000000000e+00
     4600000000    1.053685099e-01   -3.519638479e-01    1.745237112e-01    8.373509645e-01    0.000000000e+00    0.000000000e+00    0.000000000e+00    0.000000000e+00
     4650000000    3.418049589e-02   -3.016235232e-01   -2.218955010e-02    8.750866652e-01    0.000000000e+00    0.000000000e+00    0.000000000e+00    0.000000000e+00
     4700000000   -7.100513577e-02   -2.390714139e-01   -2.553000152e-01    8.840493560e-01    0.000000000e+00    0.000000000e+00    0.000000000e+00    0.000000000e+00
     4750000000   -1.120022088e-01   -1.625652611e-01   -4.427061975e-01    8.176354170e-01    0.000000000e+00    0.000000000e+00    0.000000000e+00    0.000000000e+00
     4800000000   -1.349804550e-01    5.065651610e-03   -7.002963424e-01    7.331880331e-01    0.000000000e+00    0.000000000e+00    0.000000000e+00    0.000000000e+00
     4850000000    5.376996845e-02    1.398558319e-01   -9.395294785e-01    7.026870847e-01    0.000000000e+00    0.000000000e+00    0.000000000e+00    0.000000000e+00
     4900000000    2.497161031e-01    1.142800972e-02   -1.045003653e+00    6.658166051e-01    0.000000000e+00    0.000000000e+00    0.000000000e+00    0.000000000e+00
     4950000000    1.957074404e-01   -1.850392073e-01   -1.053243279e+00    5.375115871e-01    0.000000000e+00    0.000000000e+00    0.000000000e+00    0.000000000e+00
     5000000000    1.952695101e-02   -1.627813429e-01   -1.071553230e+00    3.397676647e-01    0.000000000e+00    0.000000000e+00    0.000000000e+00    0.000000000e+00
     5050000000    4.828521609e-02    9.288830683e-03   -1.088226199e+00    5.121827498e-02    0.000000000e+00    0.000000000e+00    0.000000000e+00    0.000000000e+00
     5100000000    2.457035482e-01   -1.910278201e-02   -1.085978031e+00   -4.607847333e-02    0.000000000e+00    0.000000000e+00    0.000000000e+00    0.000000000e+00
     5150000000    2.674201131e-01   -2.406288236e-01   -9.933367968e-01   -2.149661332e-01    0.000000000e+00    0.000000000e+00    0.000000000e+00    0.000000000e+00
     5200000000    6.478530914e-02   -3.451960683e-01   -8.702401519e-01   -3.886845708e-01    0.000000000e+00    0.000000000e+00    0.000000000e+00    0.000000000e+00
     5250000000   -8.218224347e-02   -2.292381823e-01   -7.398918271e-01   -5.573571920e-01    0.000000000e+00    0.000000000e+00    0.000000000e+00    0.000000000e+00
     5300000000   -4.172334075e-02   -1.393732131e-01   -5.945517421e-01   -6.978538036e-01    0.000000000e+00    0.000000000e+00    0.000000000e+00    0.000000000e+00
     5350000000   -5.649249256e-02   -1.825150102e-01   -4.428870976e-01   -7.568999529e-01    0.000000000e+00    0.000000000e+00    0.000000000e+00    0.000000000e+00
     5400000000   -1.622930765e-01   -1.101400629e-01   -2.279472351e-01   -8.061147928e-01    0.000000000e+00    0.000000000e+00    0.000000000e+00    0.000000000e+00
     5450000000   -1.049990654e-01    7.579468191e-02   -5.156860873e-02   -8.518013954e-01    0.000000000e+00    0.000000000e+00    0.000000000e+00    0.000000000e+00
     5500000000    1.230625734e-01    7.113004476e-02    8.349319547e-02   -8.117670417e-01    0.000000000e+00    0.000000000e+00    0.000000000e+00    0.000000000e+00
     5550000000    1.852710992e-01   -1.300124526e-01    2.529045641e-01   -6.911413670e-01    0.000000000e+00    0.000000000e+00    0.000000000e+00    0.000000000e+00
     5600000000    3.674928471e-02   -2.079619616e-01    4.126358032e-01   -5.548642278e-01    0.000000000e+00    0.000000000e+00    0.000000000e+00    0.000000000e+00
     5650000000    2.606730163e-02   -1.268785447e-01    5.595062971e-01   -4.018241465e-01    0.000000000e+00    0.000000000e+00    0.000000000e+00    0.000000000e+00
     5700000000    8.575899899e-02   -1.374003589e-01    6.705017686e-01   -2.590158284e-01    0.000000000e+00    0.000000000e+00    0.000000000e+00    0.000000000e+00
     5750000000    1.208399534e-01   -2.263560891e-01    7.195666432e-01   -9.596292675e-02    0.000000000e+00    0.000000000e+00    0.000000000e+00    0.000000000e+00
     5800000000    5.289144814e-02   -3.210404515e-01    7.363315821e-01    7.042844594e-02    0.000000000e+00    0.000000000e+00    0.000000000e+00    0.000000000e+00
     5850000000   -6.838599592e-02   -3.190621734e-01    7.037203312e-01    2.334041297e-01    0.000000000e+00    0.000000000e+00    0.000000000e+00    0.000000000e+00
     5900000000   -9.260135144e-02   -2.241839468e-01    6.563841105e-01    4.048489630e-01    0.000000000e+00    0.000000000e+00    0.000000000e+00    0.000000000e+00
     5950000000   -2.476064302e-02   -2.306654751e-01    5.895615220e-01    5.192459822e-01    0.000000000e+00    0.000000000e+00    0.000000000e+00    0.000000000e+00
     6000000000   -1.340591162e-01   -2.668043673e-01    7.538117170e-01    5.814962089e-02    0.000000000e+00    0.000000000e+00    0.000000000e+00    0.000000000e+00
