! NanoVNA-App									
! Date: 2024-03-21 00:33:58									
! Start: 1GHz Stop: 6GHz Points: 101									
! S-Parameter data: F S11 S21 S12 S22									
# Hz S RI R 50									
!	Frequency	S11_Real	S11_Imag	S21_Real	S21_Imag	S12_Real	S12_Imag	S22_Real	S22_Imag
	1000000000	1.22E-01	-2.32E-02	-5.56E-01	-8.78E-01	0.00E+00	0.00E+00	0.00E+00	0.00E+00
	1050000000	5.23E-02	-2.26E-02	-3.75E-01	-9.64E-01	0.00E+00	0.00E+00	0.00E+00	0.00E+00
	1100000000	4.95E-02	-1.12E-02	-1.69E-01	-1.02E+00	0.00E+00	0.00E+00	0.00E+00	0.00E+00
	1150000000	2.99E-02	-4.64E-02	3.68E-02	-1.03E+00	0.00E+00	0.00E+00	0.00E+00	0.00E+00
	1200000000	-5.04E-02	-3.64E-02	2.44E-01	-9.89E-01	0.00E+00	0.00E+00	0.00E+00	0.00E+00
	1250000000	-7.78E-02	6.67E-02	4.49E-01	-9.10E-01	0.00E+00	0.00E+00	0.00E+00	0.00E+00
	1300000000	1.53E-02	1.35E-01	6.30E-01	-8.03E-01	0.00E+00	0.00E+00	0.00E+00	0.00E+00
	1350000000	1.00E-01	6.57E-02	7.72E-01	-6.54E-01	0.00E+00	0.00E+00	0.00E+00	0.00E+00
	1400000000	7.31E-02	4.74E-03	9.02E-01	-4.83E-01	0.00E+00	0.00E+00	0.00E+00	0.00E+00
	1450000000	1.77E-02	2.21E-02	9.74E-01	-3.01E-01	0.00E+00	0.00E+00	0.00E+00	0.00E+00
	1500000000	5.25E-02	6.39E-02	1.00E+00	-1.02E-01	0.00E+00	0.00E+00	0.00E+00	0.00E+00
	1550000000	9.56E-02	5.99E-03	9.91E-01	1.01E-01	0.00E+00	0.00E+00	0.00E+00	0.00E+00
	1600000000	1.31E-02	-5.67E-02	9.46E-01	2.92E-01	0.00E+00	0.00E+00	0.00E+00	0.00E+00
	1650000000	-9.30E-02	3.78E-02	8.60E-01	4.62E-01	0.00E+00	0.00E+00	0.00E+00	0.00E+00
	1700000000	-2.40E-02	1.96E-01	7.31E-01	6.05E-01	0.00E+00	0.00E+00	0.00E+00	0.00E+00
	1750000000	1.61E-01	1.97E-01	5.75E-01	7.38E-01	0.00E+00	0.00E+00	0.00E+00	0.00E+00
	1800000000	2.37E-01	4.14E-02	4.23E-01	8.45E-01	0.00E+00	0.00E+00	0.00E+00	0.00E+00
	1850000000	1.53E-01	-7.28E-02	2.69E-01	9.00E-01	0.00E+00	0.00E+00	0.00E+00	0.00E+00
	1900000000	6.41E-02	-5.60E-02	1.28E-01	9.15E-01	0.00E+00	0.00E+00	0.00E+00	0.00E+00
	1950000000	5.29E-02	-2.16E-02	8.05E-03	8.93E-01	0.00E+00	0.00E+00	0.00E+00	0.00E+00
	2000000000	7.51E-02	-2.23E-02	-4.86E-02	8.10E-01	0.00E+00	0.00E+00	0.00E+00	0.00E+00
	2050000000	5.81E-02	-1.93E-01	-3.77E-02	5.62E-01	0.00E+00	0.00E+00	0.00E+00	0.00E+00
	2100000000	-4.00E-01	-3.90E-02	-2.78E-01	2.03E-01	0.00E+00	0.00E+00	0.00E+00	0.00E+00
	2150000000	-1.91E-01	4.70E-01	-4.98E-01	6.64E-02	0.00E+00	0.00E+00	0.00E+00	0.00E+00
	2200000000	2.66E-01	4.83E-01	-5.99E-01	-4.93E-02	0.00E+00	0.00E+00	0.00E+00	0.00E+00
	2250000000	5.14E-01	1.79E-01	-6.35E-01	-1.61E-01	0.00E+00	0.00E+00	0.00E+00	0.00E+00
	2300000000	4.62E-01	-1.65E-01	-6.09E-01	-2.69E-01	0.00E+00	0.00E+00	0.00E+00	0.00E+00
	2350000000	2.10E-01	-3.50E-01	-5.40E-01	-3.78E-01	0.00E+00	0.00E+00	0.00E+00	0.00E+00
	2400000000	-7.87E-02	-3.16E-01	-4.56E-01	-4.72E-01	0.00E+00	0.00E+00	0.00E+00	0.00E+00
	2450000000	-2.41E-01	-8.26E-02	-3.68E-01	-5.32E-01	0.00E+00	0.00E+00	0.00E+00	0.00E+00
	2500000000	-1.26E-01	1.32E-01	-3.02E-01	-5.00E-01	0.00E+00	0.00E+00	0.00E+00	0.00E+00
	2550000000	-1.62E-01	1.37E-01	-3.11E-02	-3.40E-01	0.00E+00	0.00E+00	0.00E+00	0.00E+00
	2600000000	4.43E-02	3.75E-01	2.16E-01	-4.01E-01	0.00E+00	0.00E+00	0.00E+00	0.00E+00
	2650000000	3.37E-01	2.63E-01	3.58E-01	-3.79E-01	0.00E+00	0.00E+00	0.00E+00	0.00E+00
	2700000000	4.08E-01	-1.54E-02	4.84E-01	-3.01E-01	0.00E+00	0.00E+00	0.00E+00	0.00E+00
	2750000000	2.55E-01	-2.19E-01	5.92E-01	-1.93E-01	0.00E+00	0.00E+00	0.00E+00	0.00E+00
	2800000000	4.08E-02	-2.23E-01	6.76E-01	-7.03E-02	0.00E+00	0.00E+00	0.00E+00	0.00E+00
	2850000000	-7.11E-02	-9.81E-02	7.26E-01	4.98E-02	0.00E+00	0.00E+00	0.00E+00	0.00E+00
	2900000000	-5.17E-02	3.44E-02	7.08E-01	1.76E-01	0.00E+00	0.00E+00	0.00E+00	0.00E+00
	2950000000	1.34E-02	8.23E-02	6.33E-01	3.44E-01	0.00E+00	0.00E+00	0.00E+00	0.00E+00
	3000000000	1.08E-01	1.29E-01	5.92E-01	5.03E-01	0.00E+00	0.00E+00	0.00E+00	0.00E+00
	3050000000	2.20E-01	6.36E-02	4.95E-01	6.17E-01	0.00E+00	0.00E+00	0.00E+00	0.00E+00
	3100000000	2.33E-01	-6.67E-02	3.61E-01	7.28E-01	0.00E+00	0.00E+00	0.00E+00	0.00E+00
	3150000000	1.39E-01	-1.46E-01	2.35E-01	8.12E-01	0.00E+00	0.00E+00	0.00E+00	0.00E+00
	3200000000	4.17E-02	-1.12E-01	9.72E-02	8.38E-01	0.00E+00	0.00E+00	0.00E+00	0.00E+00
	3250000000	2.35E-02	-3.41E-02	-6.48E-02	8.27E-01	0.00E+00	0.00E+00	0.00E+00	0.00E+00
	3300000000	5.90E-02	1.04E-02	-2.25E-01	7.94E-01	0.00E+00	0.00E+00	0.00E+00	0.00E+00
	3350000000	9.12E-02	1.66E-02	-3.70E-01	7.30E-01	0.00E+00	0.00E+00	0.00E+00	0.00E+00
	3400000000	9.55E-02	3.10E-02	-4.85E-01	6.48E-01	0.00E+00	0.00E+00	0.00E+00	0.00E+00
	3450000000	1.85E-01	9.61E-02	-5.10E-01	5.05E-01	0.00E+00	0.00E+00	0.00E+00	0.00E+00
	3500000000	2.79E-01	-5.83E-03	-5.72E-01	2.75E-01	0.00E+00	0.00E+00	0.00E+00	0.00E+00
	3550000000	2.68E-01	-1.54E-01	-6.45E-01	3.10E-02	0.00E+00	0.00E+00	0.00E+00	0.00E+00
	3600000000	1.47E-01	-1.97E-01	-7.17E-01	-1.40E-01	0.00E+00	0.00E+00	0.00E+00	0.00E+00
	3650000000	7.51E-02	-1.70E-01	-7.06E-01	-3.01E-01	0.00E+00	0.00E+00	0.00E+00	0.00E+00
	3700000000	2.21E-02	-1.33E-01	-6.55E-01	-4.72E-01	0.00E+00	0.00E+00	0.00E+00	0.00E+00
	3750000000	-1.36E-02	-6.03E-02	-5.84E-01	-6.22E-01	0.00E+00	0.00E+00	0.00E+00	0.00E+00
	3800000000	1.76E-02	2.42E-02	-4.74E-01	-7.22E-01	0.00E+00	0.00E+00	0.00E+00	0.00E+00
	3850000000	8.40E-02	4.06E-02	-3.07E-01	-7.99E-01	0.00E+00	0.00E+00	0.00E+00	0.00E+00
	3900000000	1.00E-01	3.51E-02	-1.34E-01	-8.58E-01	0.00E+00	0.00E+00	0.00E+00	0.00E+00
	3950000000	1.37E-01	8.49E-02	3.33E-02	-8.57E-01	0.00E+00	0.00E+00	0.00E+00	0.00E+00
	4000000000	2.73E-01	8.22E-02	2.38E-01	-8.09E-01	0.00E+00	0.00E+00	0.00E+00	0.00E+00
	4050000000	3.80E-01	-7.99E-02	4.45E-01	-7.58E-01	0.00E+00	0.00E+00	0.00E+00	0.00E+00
	4100000000	3.07E-01	-2.94E-01	5.89E-01	-6.81E-01	0.00E+00	0.00E+00	0.00E+00	0.00E+00
	4150000000	8.85E-02	-3.76E-01	7.18E-01	-5.35E-01	0.00E+00	0.00E+00	0.00E+00	0.00E+00
	4200000000	-9.15E-02	-2.73E-01	8.48E-01	-3.80E-01	0.00E+00	0.00E+00	0.00E+00	0.00E+00
	4250000000	-1.34E-01	-1.36E-01	9.13E-01	-2.35E-01	0.00E+00	0.00E+00	0.00E+00	0.00E+00
	4300000000	-1.49E-01	-3.37E-02	9.13E-01	-5.01E-02	0.00E+00	0.00E+00	0.00E+00	0.00E+00
	4350000000	-1.24E-01	1.39E-01	8.97E-01	1.33E-01	0.00E+00	0.00E+00	0.00E+00	0.00E+00
	4400000000	9.33E-02	2.81E-01	8.19E-01	2.96E-01	0.00E+00	0.00E+00	0.00E+00	0.00E+00
	4450000000	3.80E-01	1.73E-01	6.91E-01	4.69E-01	0.00E+00	0.00E+00	0.00E+00	0.00E+00
	4500000000	4.68E-01	-1.19E-01	5.55E-01	6.35E-01	0.00E+00	0.00E+00	0.00E+00	0.00E+00
	4550000000	3.13E-01	-3.44E-01	3.88E-01	7.39E-01	0.00E+00	0.00E+00	0.00E+00	0.00E+00
	4600000000	1.08E-01	-3.52E-01	1.84E-01	8.30E-01	0.00E+00	0.00E+00	0.00E+00	0.00E+00
	4650000000	3.56E-02	-3.04E-01	-1.44E-02	8.70E-01	0.00E+00	0.00E+00	0.00E+00	0.00E+00
	4700000000	-6.71E-02	-2.41E-01	-2.46E-01	8.84E-01	0.00E+00	0.00E+00	0.00E+00	0.00E+00
	4750000000	-1.09E-01	-1.67E-01	-4.26E-01	8.20E-01	0.00E+00	0.00E+00	0.00E+00	0.00E+00
	4800000000	-1.33E-01	-9.88E-04	-6.85E-01	7.38E-01	0.00E+00	0.00E+00	0.00E+00	0.00E+00
	4850000000	5.49E-02	1.34E-01	-9.25E-01	7.08E-01	0.00E+00	0.00E+00	0.00E+00	0.00E+00
	4900000000	2.50E-01	6.37E-03	-1.03E+00	6.75E-01	0.00E+00	0.00E+00	0.00E+00	0.00E+00
	4950000000	1.95E-01	-1.89E-01	-1.04E+00	5.44E-01	0.00E+00	0.00E+00	0.00E+00	0.00E+00
	5000000000	1.99E-02	-1.65E-01	-1.06E+00	3.52E-01	0.00E+00	0.00E+00	0.00E+00	0.00E+00
	5050000000	5.05E-02	9.81E-03	-1.08E+00	7.04E-02	0.00E+00	0.00E+00	0.00E+00	0.00E+00
	5100000000	2.50E-01	-1.96E-02	-1.08E+00	-3.08E-02	0.00E+00	0.00E+00	0.00E+00	0.00E+00
	5150000000	2.71E-01	-2.42E-01	-9.91E-01	-1.96E-01	0.00E+00	0.00E+00	0.00E+00	0.00E+00
	5200000000	7.18E-02	-3.47E-01	-8.72E-01	-3.73E-01	0.00E+00	0.00E+00	0.00E+00	0.00E+00
	5250000000	-7.41E-02	-2.34E-01	-7.43E-01	-5.44E-01	0.00E+00	0.00E+00	0.00E+00	0.00E+00
	5300000000	-3.77E-02	-1.44E-01	-6.03E-01	-6.81E-01	0.00E+00	0.00E+00	0.00E+00	0.00E+00
	5350000000	-5.43E-02	-1.87E-01	-4.53E-01	-7.43E-01	0.00E+00	0.00E+00	0.00E+00	0.00E+00
	5400000000	-1.60E-01	-1.11E-01	-2.42E-01	-7.96E-01	0.00E+00	0.00E+00	0.00E+00	0.00E+00
	5450000000	-9.96E-02	7.08E-02	-6.15E-02	-8.44E-01	0.00E+00	0.00E+00	0.00E+00	0.00E+00
	5500000000	1.24E-01	6.56E-02	7.01E-02	-8.07E-01	0.00E+00	0.00E+00	0.00E+00	0.00E+00
	5550000000	1.82E-01	-1.28E-01	2.37E-01	-6.91E-01	0.00E+00	0.00E+00	0.00E+00	0.00E+00
	5600000000	4.67E-02	-2.02E-01	4.01E-01	-5.58E-01	0.00E+00	0.00E+00	0.00E+00	0.00E+00
	5650000000	3.94E-02	-1.36E-01	5.53E-01	-4.08E-01	0.00E+00	0.00E+00	0.00E+00	0.00E+00
	5700000000	8.76E-02	-1.44E-01	6.61E-01	-2.74E-01	0.00E+00	0.00E+00	0.00E+00	0.00E+00
	5750000000	1.25E-01	-2.29E-01	7.13E-01	-1.08E-01	0.00E+00	0.00E+00	0.00E+00	0.00E+00
	5800000000	5.98E-02	-3.23E-01	7.33E-01	5.70E-02	0.00E+00	0.00E+00	0.00E+00	0.00E+00
	5850000000	-6.28E-02	-3.19E-01	7.02E-01	2.19E-01	0.00E+00	0.00E+00	0.00E+00	0.00E+00
	5900000000	-8.18E-02	-2.24E-01	6.58E-01	3.88E-01	0.00E+00	0.00E+00	0.00E+00	0.00E+00
	5950000000	-1.30E-02	-2.34E-01	5.95E-01	4.97E-01	0.00E+00	0.00E+00	0.00E+00	0.00E+00
	6000000000	-1.22E-01	-2.74E-01	7.45E-01	4.13E-02	0.00E+00	0.00E+00	0.00E+00	0.00E+00
