! NanoVNA-App									
! Date: 2024-03-20 20:59:30									
! Start: 1GHz Stop: 6GHz Points: 101									
! S-Parameter data: F S11 S21 S12 S22									
# Hz S RI R 50									
!	Frequency	S11_Real	S11_Imag	S21_Real	S21_Imag	S12_Real	S12_Imag	S22_Real	S22_Imag
	1000000000	1.23E-01	-2.37E-02	-5.54E-01	-8.80E-01	0.00E+00	0.00E+00	0.00E+00	0.00E+00
	1050000000	5.31E-02	-2.33E-02	-3.72E-01	-9.66E-01	0.00E+00	0.00E+00	0.00E+00	0.00E+00
	1100000000	4.99E-02	-1.09E-02	-1.65E-01	-1.02E+00	0.00E+00	0.00E+00	0.00E+00	0.00E+00
	1150000000	3.08E-02	-4.58E-02	3.91E-02	-1.03E+00	0.00E+00	0.00E+00	0.00E+00	0.00E+00
	1200000000	-4.89E-02	-3.61E-02	2.47E-01	-9.88E-01	0.00E+00	0.00E+00	0.00E+00	0.00E+00
	1250000000	-7.68E-02	6.70E-02	4.51E-01	-9.09E-01	0.00E+00	0.00E+00	0.00E+00	0.00E+00
	1300000000	1.63E-02	1.36E-01	6.32E-01	-8.00E-01	0.00E+00	0.00E+00	0.00E+00	0.00E+00
	1350000000	1.03E-01	6.61E-02	7.71E-01	-6.52E-01	0.00E+00	0.00E+00	0.00E+00	0.00E+00
	1400000000	7.56E-02	5.21E-03	9.03E-01	-4.81E-01	0.00E+00	0.00E+00	0.00E+00	0.00E+00
	1450000000	1.93E-02	2.11E-02	9.75E-01	-2.98E-01	0.00E+00	0.00E+00	0.00E+00	0.00E+00
	1500000000	5.24E-02	6.28E-02	1.00E+00	-1.01E-01	0.00E+00	0.00E+00	0.00E+00	0.00E+00
	1550000000	9.43E-02	6.38E-03	9.90E-01	1.03E-01	0.00E+00	0.00E+00	0.00E+00	0.00E+00
	1600000000	1.17E-02	-5.45E-02	9.42E-01	2.94E-01	0.00E+00	0.00E+00	0.00E+00	0.00E+00
	1650000000	-9.25E-02	4.19E-02	8.58E-01	4.62E-01	0.00E+00	0.00E+00	0.00E+00	0.00E+00
	1700000000	-2.10E-02	2.00E-01	7.28E-01	6.05E-01	0.00E+00	0.00E+00	0.00E+00	0.00E+00
	1750000000	1.65E-01	1.97E-01	5.71E-01	7.35E-01	0.00E+00	0.00E+00	0.00E+00	0.00E+00
	1800000000	2.42E-01	3.83E-02	4.20E-01	8.43E-01	0.00E+00	0.00E+00	0.00E+00	0.00E+00
	1850000000	1.53E-01	-7.76E-02	2.67E-01	8.97E-01	0.00E+00	0.00E+00	0.00E+00	0.00E+00
	1900000000	5.96E-02	-5.89E-02	1.20E-01	9.11E-01	0.00E+00	0.00E+00	0.00E+00	0.00E+00
	1950000000	4.73E-02	-1.92E-02	5.29E-03	8.88E-01	0.00E+00	0.00E+00	0.00E+00	0.00E+00
	2000000000	7.24E-02	-1.63E-02	-5.03E-02	8.06E-01	0.00E+00	0.00E+00	0.00E+00	0.00E+00
	2050000000	5.97E-02	-1.86E-01	-3.61E-02	5.59E-01	0.00E+00	0.00E+00	0.00E+00	0.00E+00
	2100000000	-3.95E-01	-3.72E-02	-2.75E-01	1.99E-01	0.00E+00	0.00E+00	0.00E+00	0.00E+00
	2150000000	-1.86E-01	4.71E-01	-4.92E-01	6.14E-02	0.00E+00	0.00E+00	0.00E+00	0.00E+00
	2200000000	2.71E-01	4.79E-01	-5.91E-01	-5.38E-02	0.00E+00	0.00E+00	0.00E+00	0.00E+00
	2250000000	5.16E-01	1.73E-01	-6.26E-01	-1.63E-01	0.00E+00	0.00E+00	0.00E+00	0.00E+00
	2300000000	4.59E-01	-1.72E-01	-5.98E-01	-2.72E-01	0.00E+00	0.00E+00	0.00E+00	0.00E+00
	2350000000	2.00E-01	-3.55E-01	-5.28E-01	-3.79E-01	0.00E+00	0.00E+00	0.00E+00	0.00E+00
	2400000000	-9.03E-02	-3.06E-01	-4.40E-01	-4.71E-01	0.00E+00	0.00E+00	0.00E+00	0.00E+00
	2450000000	-2.40E-01	-6.72E-02	-3.51E-01	-5.31E-01	0.00E+00	0.00E+00	0.00E+00	0.00E+00
	2500000000	-1.15E-01	1.40E-01	-2.81E-01	-5.00E-01	0.00E+00	0.00E+00	0.00E+00	0.00E+00
	2550000000	-1.45E-01	1.31E-01	-1.96E-02	-3.36E-01	0.00E+00	0.00E+00	0.00E+00	0.00E+00
	2600000000	4.78E-02	3.61E-01	2.34E-01	-3.92E-01	0.00E+00	0.00E+00	0.00E+00	0.00E+00
	2650000000	3.31E-01	2.52E-01	3.77E-01	-3.72E-01	0.00E+00	0.00E+00	0.00E+00	0.00E+00
	2700000000	3.96E-01	-1.96E-02	5.01E-01	-2.94E-01	0.00E+00	0.00E+00	0.00E+00	0.00E+00
	2750000000	2.45E-01	-2.11E-01	6.06E-01	-1.83E-01	0.00E+00	0.00E+00	0.00E+00	0.00E+00
	2800000000	3.86E-02	-2.13E-01	6.95E-01	-6.00E-02	0.00E+00	0.00E+00	0.00E+00	0.00E+00
	2850000000	-5.99E-02	-8.80E-02	7.35E-01	6.34E-02	0.00E+00	0.00E+00	0.00E+00	0.00E+00
	2900000000	-3.81E-02	3.20E-02	7.15E-01	1.91E-01	0.00E+00	0.00E+00	0.00E+00	0.00E+00
	2950000000	1.86E-02	7.02E-02	6.39E-01	3.57E-01	0.00E+00	0.00E+00	0.00E+00	0.00E+00
	3000000000	1.02E-01	1.21E-01	5.92E-01	5.17E-01	0.00E+00	0.00E+00	0.00E+00	0.00E+00
	3050000000	2.12E-01	6.17E-02	4.93E-01	6.32E-01	0.00E+00	0.00E+00	0.00E+00	0.00E+00
	3100000000	2.26E-01	-6.33E-02	3.59E-01	7.39E-01	0.00E+00	0.00E+00	0.00E+00	0.00E+00
	3150000000	1.36E-01	-1.40E-01	2.27E-01	8.24E-01	0.00E+00	0.00E+00	0.00E+00	0.00E+00
	3200000000	4.24E-02	-1.06E-01	8.79E-02	8.49E-01	0.00E+00	0.00E+00	0.00E+00	0.00E+00
	3250000000	2.81E-02	-3.05E-02	-7.60E-02	8.36E-01	0.00E+00	0.00E+00	0.00E+00	0.00E+00
	3300000000	6.46E-02	9.48E-03	-2.42E-01	8.02E-01	0.00E+00	0.00E+00	0.00E+00	0.00E+00
	3350000000	9.29E-02	1.27E-02	-3.83E-01	7.35E-01	0.00E+00	0.00E+00	0.00E+00	0.00E+00
	3400000000	9.50E-02	2.80E-02	-4.95E-01	6.51E-01	0.00E+00	0.00E+00	0.00E+00	0.00E+00
	3450000000	1.85E-01	9.35E-02	-5.19E-01	5.04E-01	0.00E+00	0.00E+00	0.00E+00	0.00E+00
	3500000000	2.77E-01	-1.03E-02	-5.83E-01	2.71E-01	0.00E+00	0.00E+00	0.00E+00	0.00E+00
	3550000000	2.61E-01	-1.58E-01	-6.60E-01	1.70E-02	0.00E+00	0.00E+00	0.00E+00	0.00E+00
	3600000000	1.38E-01	-1.91E-01	-7.33E-01	-1.51E-01	0.00E+00	0.00E+00	0.00E+00	0.00E+00
	3650000000	7.66E-02	-1.60E-01	-7.22E-01	-3.11E-01	0.00E+00	0.00E+00	0.00E+00	0.00E+00
	3700000000	3.10E-02	-1.30E-01	-6.65E-01	-4.84E-01	0.00E+00	0.00E+00	0.00E+00	0.00E+00
	3750000000	-7.19E-03	-6.49E-02	-5.93E-01	-6.33E-01	0.00E+00	0.00E+00	0.00E+00	0.00E+00
	3800000000	1.96E-02	1.70E-02	-4.82E-01	-7.33E-01	0.00E+00	0.00E+00	0.00E+00	0.00E+00
	3850000000	8.04E-02	3.33E-02	-3.14E-01	-8.10E-01	0.00E+00	0.00E+00	0.00E+00	0.00E+00
	3900000000	9.30E-02	3.42E-02	-1.37E-01	-8.69E-01	0.00E+00	0.00E+00	0.00E+00	0.00E+00
	3950000000	1.32E-01	9.00E-02	3.04E-02	-8.66E-01	0.00E+00	0.00E+00	0.00E+00	0.00E+00
	4000000000	2.74E-01	8.85E-02	2.37E-01	-8.14E-01	0.00E+00	0.00E+00	0.00E+00	0.00E+00
	4050000000	3.85E-01	-7.75E-02	4.43E-01	-7.63E-01	0.00E+00	0.00E+00	0.00E+00	0.00E+00
	4100000000	3.11E-01	-2.96E-01	5.90E-01	-6.84E-01	0.00E+00	0.00E+00	0.00E+00	0.00E+00
	4150000000	8.98E-02	-3.80E-01	7.18E-01	-5.38E-01	0.00E+00	0.00E+00	0.00E+00	0.00E+00
	4200000000	-9.23E-02	-2.76E-01	8.50E-01	-3.80E-01	0.00E+00	0.00E+00	0.00E+00	0.00E+00
	4250000000	-1.37E-01	-1.37E-01	9.12E-01	-2.35E-01	0.00E+00	0.00E+00	0.00E+00	0.00E+00
	4300000000	-1.52E-01	-3.10E-02	9.14E-01	-4.87E-02	0.00E+00	0.00E+00	0.00E+00	0.00E+00
	4350000000	-1.24E-01	1.42E-01	8.97E-01	1.36E-01	0.00E+00	0.00E+00	0.00E+00	0.00E+00
	4400000000	9.42E-02	2.85E-01	8.19E-01	3.03E-01	0.00E+00	0.00E+00	0.00E+00	0.00E+00
	4450000000	3.82E-01	1.76E-01	6.88E-01	4.75E-01	0.00E+00	0.00E+00	0.00E+00	0.00E+00
	4500000000	4.72E-01	-1.18E-01	5.52E-01	6.39E-01	0.00E+00	0.00E+00	0.00E+00	0.00E+00
	4550000000	3.16E-01	-3.46E-01	3.83E-01	7.44E-01	0.00E+00	0.00E+00	0.00E+00	0.00E+00
	4600000000	1.08E-01	-3.56E-01	1.74E-01	8.34E-01	0.00E+00	0.00E+00	0.00E+00	0.00E+00
	4650000000	3.11E-02	-3.05E-01	-2.27E-02	8.75E-01	0.00E+00	0.00E+00	0.00E+00	0.00E+00
	4700000000	-7.06E-02	-2.40E-01	-2.52E-01	8.85E-01	0.00E+00	0.00E+00	0.00E+00	0.00E+00
	4750000000	-1.12E-01	-1.63E-01	-4.36E-01	8.19E-01	0.00E+00	0.00E+00	0.00E+00	0.00E+00
	4800000000	-1.35E-01	4.97E-03	-6.95E-01	7.35E-01	0.00E+00	0.00E+00	0.00E+00	0.00E+00
	4850000000	5.43E-02	1.40E-01	-9.38E-01	7.03E-01	0.00E+00	0.00E+00	0.00E+00	0.00E+00
	4900000000	2.53E-01	1.11E-02	-1.05E+00	6.64E-01	0.00E+00	0.00E+00	0.00E+00	0.00E+00
	4950000000	1.99E-01	-1.89E-01	-1.05E+00	5.39E-01	0.00E+00	0.00E+00	0.00E+00	0.00E+00
	5000000000	1.93E-02	-1.67E-01	-1.07E+00	3.45E-01	0.00E+00	0.00E+00	0.00E+00	0.00E+00
	5050000000	4.54E-02	8.13E-03	-1.09E+00	5.75E-02	0.00E+00	0.00E+00	0.00E+00	0.00E+00
	5100000000	2.46E-01	-1.75E-02	-1.09E+00	-4.52E-02	0.00E+00	0.00E+00	0.00E+00	0.00E+00
	5150000000	2.69E-01	-2.40E-01	-9.97E-01	-2.11E-01	0.00E+00	0.00E+00	0.00E+00	0.00E+00
	5200000000	6.92E-02	-3.46E-01	-8.74E-01	-3.85E-01	0.00E+00	0.00E+00	0.00E+00	0.00E+00
	5250000000	-7.86E-02	-2.30E-01	-7.45E-01	-5.51E-01	0.00E+00	0.00E+00	0.00E+00	0.00E+00
	5300000000	-3.90E-02	-1.42E-01	-6.02E-01	-6.94E-01	0.00E+00	0.00E+00	0.00E+00	0.00E+00
	5350000000	-5.43E-02	-1.86E-01	-4.50E-01	-7.52E-01	0.00E+00	0.00E+00	0.00E+00	0.00E+00
	5400000000	-1.62E-01	-1.12E-01	-2.36E-01	-8.03E-01	0.00E+00	0.00E+00	0.00E+00	0.00E+00
	5450000000	-1.03E-01	7.26E-02	-5.57E-02	-8.49E-01	0.00E+00	0.00E+00	0.00E+00	0.00E+00
	5500000000	1.20E-01	6.81E-02	7.80E-02	-8.11E-01	0.00E+00	0.00E+00	0.00E+00	0.00E+00
	5550000000	1.81E-01	-1.27E-01	2.47E-01	-6.93E-01	0.00E+00	0.00E+00	0.00E+00	0.00E+00
	5600000000	4.36E-02	-2.01E-01	4.09E-01	-5.57E-01	0.00E+00	0.00E+00	0.00E+00	0.00E+00
	5650000000	3.65E-02	-1.33E-01	5.59E-01	-4.04E-01	0.00E+00	0.00E+00	0.00E+00	0.00E+00
	5700000000	8.35E-02	-1.43E-01	6.67E-01	-2.70E-01	0.00E+00	0.00E+00	0.00E+00	0.00E+00
	5750000000	1.21E-01	-2.29E-01	7.17E-01	-1.06E-01	0.00E+00	0.00E+00	0.00E+00	0.00E+00
	5800000000	5.53E-02	-3.23E-01	7.37E-01	6.34E-02	0.00E+00	0.00E+00	0.00E+00	0.00E+00
	5850000000	-6.69E-02	-3.18E-01	7.05E-01	2.28E-01	0.00E+00	0.00E+00	0.00E+00	0.00E+00
	5900000000	-8.89E-02	-2.22E-01	6.59E-01	3.98E-01	0.00E+00	0.00E+00	0.00E+00	0.00E+00
	5950000000	-1.92E-02	-2.30E-01	5.93E-01	5.08E-01	0.00E+00	0.00E+00	0.00E+00	0.00E+00
	6000000000	-1.26E-01	-2.71E-01	7.49E-01	5.15E-02	0.00E+00	0.00E+00	0.00E+00	0.00E+00
