! NanoVNA-App									
! Date: 2024-03-20 23:43:21									
! Start: 1GHz Stop: 6GHz Points: 101									
! S-Parameter data: F S11 S21 S12 S22									
# Hz S RI R 50									
!	Frequency	S11_Real	S11_Imag	S21_Real	S21_Imag	S12_Real	S12_Imag	S22_Real	S22_Imag
	1000000000	1.22E-01	-2.34E-02	-5.56E-01	-8.78E-01	0.00E+00	0.00E+00	0.00E+00	0.00E+00
	1050000000	5.26E-02	-2.28E-02	-3.75E-01	-9.65E-01	0.00E+00	0.00E+00	0.00E+00	0.00E+00
	1100000000	4.98E-02	-1.12E-02	-1.68E-01	-1.02E+00	0.00E+00	0.00E+00	0.00E+00	0.00E+00
	1150000000	3.03E-02	-4.63E-02	3.87E-02	-1.03E+00	0.00E+00	0.00E+00	0.00E+00	0.00E+00
	1200000000	-4.99E-02	-3.65E-02	2.44E-01	-9.89E-01	0.00E+00	0.00E+00	0.00E+00	0.00E+00
	1250000000	-7.77E-02	6.65E-02	4.50E-01	-9.10E-01	0.00E+00	0.00E+00	0.00E+00	0.00E+00
	1300000000	1.55E-02	1.35E-01	6.31E-01	-8.02E-01	0.00E+00	0.00E+00	0.00E+00	0.00E+00
	1350000000	1.01E-01	6.58E-02	7.72E-01	-6.54E-01	0.00E+00	0.00E+00	0.00E+00	0.00E+00
	1400000000	7.36E-02	4.75E-03	9.02E-01	-4.82E-01	0.00E+00	0.00E+00	0.00E+00	0.00E+00
	1450000000	1.80E-02	2.18E-02	9.73E-01	-3.00E-01	0.00E+00	0.00E+00	0.00E+00	0.00E+00
	1500000000	5.25E-02	6.36E-02	1.00E+00	-1.02E-01	0.00E+00	0.00E+00	0.00E+00	0.00E+00
	1550000000	9.56E-02	6.22E-03	9.91E-01	1.01E-01	0.00E+00	0.00E+00	0.00E+00	0.00E+00
	1600000000	1.33E-02	-5.64E-02	9.44E-01	2.91E-01	0.00E+00	0.00E+00	0.00E+00	0.00E+00
	1650000000	-9.25E-02	3.85E-02	8.61E-01	4.61E-01	0.00E+00	0.00E+00	0.00E+00	0.00E+00
	1700000000	-2.39E-02	1.97E-01	7.29E-01	6.06E-01	0.00E+00	0.00E+00	0.00E+00	0.00E+00
	1750000000	1.62E-01	1.97E-01	5.74E-01	7.37E-01	0.00E+00	0.00E+00	0.00E+00	0.00E+00
	1800000000	2.39E-01	4.06E-02	4.22E-01	8.45E-01	0.00E+00	0.00E+00	0.00E+00	0.00E+00
	1850000000	1.53E-01	-7.41E-02	2.68E-01	8.99E-01	0.00E+00	0.00E+00	0.00E+00	0.00E+00
	1900000000	6.28E-02	-5.67E-02	1.23E-01	9.14E-01	0.00E+00	0.00E+00	0.00E+00	0.00E+00
	1950000000	5.11E-02	-2.05E-02	7.19E-03	8.90E-01	0.00E+00	0.00E+00	0.00E+00	0.00E+00
	2000000000	7.49E-02	-1.96E-02	-4.94E-02	8.08E-01	0.00E+00	0.00E+00	0.00E+00	0.00E+00
	2050000000	5.93E-02	-1.92E-01	-3.51E-02	5.63E-01	0.00E+00	0.00E+00	0.00E+00	0.00E+00
	2100000000	-3.94E-01	-3.96E-02	-2.81E-01	1.99E-01	0.00E+00	0.00E+00	0.00E+00	0.00E+00
	2150000000	-1.92E-01	4.69E-01	-4.97E-01	6.46E-02	0.00E+00	0.00E+00	0.00E+00	0.00E+00
	2200000000	2.65E-01	4.83E-01	-5.98E-01	-5.16E-02	0.00E+00	0.00E+00	0.00E+00	0.00E+00
	2250000000	5.14E-01	1.79E-01	-6.34E-01	-1.65E-01	0.00E+00	0.00E+00	0.00E+00	0.00E+00
	2300000000	4.62E-01	-1.65E-01	-6.07E-01	-2.70E-01	0.00E+00	0.00E+00	0.00E+00	0.00E+00
	2350000000	2.10E-01	-3.49E-01	-5.37E-01	-3.79E-01	0.00E+00	0.00E+00	0.00E+00	0.00E+00
	2400000000	-8.01E-02	-3.14E-01	-4.52E-01	-4.74E-01	0.00E+00	0.00E+00	0.00E+00	0.00E+00
	2450000000	-2.41E-01	-7.96E-02	-3.64E-01	-5.33E-01	0.00E+00	0.00E+00	0.00E+00	0.00E+00
	2500000000	-1.23E-01	1.34E-01	-3.01E-01	-5.00E-01	0.00E+00	0.00E+00	0.00E+00	0.00E+00
	2550000000	-1.59E-01	1.36E-01	-2.67E-02	-3.40E-01	0.00E+00	0.00E+00	0.00E+00	0.00E+00
	2600000000	4.31E-02	3.71E-01	2.21E-01	-4.00E-01	0.00E+00	0.00E+00	0.00E+00	0.00E+00
	2650000000	3.35E-01	2.61E-01	3.62E-01	-3.80E-01	0.00E+00	0.00E+00	0.00E+00	0.00E+00
	2700000000	4.07E-01	-1.54E-02	4.90E-01	-3.00E-01	0.00E+00	0.00E+00	0.00E+00	0.00E+00
	2750000000	2.55E-01	-2.16E-01	5.96E-01	-1.90E-01	0.00E+00	0.00E+00	0.00E+00	0.00E+00
	2800000000	4.08E-02	-2.20E-01	6.80E-01	-7.01E-02	0.00E+00	0.00E+00	0.00E+00	0.00E+00
	2850000000	-6.80E-02	-9.66E-02	7.29E-01	5.33E-02	0.00E+00	0.00E+00	0.00E+00	0.00E+00
	2900000000	-4.94E-02	3.24E-02	7.11E-01	1.78E-01	0.00E+00	0.00E+00	0.00E+00	0.00E+00
	2950000000	1.46E-02	7.96E-02	6.38E-01	3.56E-01	0.00E+00	0.00E+00	0.00E+00	0.00E+00
	3000000000	1.05E-01	1.27E-01	5.92E-01	5.04E-01	0.00E+00	0.00E+00	0.00E+00	0.00E+00
	3050000000	2.18E-01	6.41E-02	4.95E-01	6.20E-01	0.00E+00	0.00E+00	0.00E+00	0.00E+00
	3100000000	2.32E-01	-6.62E-02	3.63E-01	7.29E-01	0.00E+00	0.00E+00	0.00E+00	0.00E+00
	3150000000	1.39E-01	-1.44E-01	2.35E-01	8.14E-01	0.00E+00	0.00E+00	0.00E+00	0.00E+00
	3200000000	4.26E-02	-1.12E-01	9.61E-02	8.40E-01	0.00E+00	0.00E+00	0.00E+00	0.00E+00
	3250000000	2.47E-02	-3.46E-02	-6.71E-02	8.29E-01	0.00E+00	0.00E+00	0.00E+00	0.00E+00
	3300000000	5.96E-02	8.86E-03	-2.28E-01	7.97E-01	0.00E+00	0.00E+00	0.00E+00	0.00E+00
	3350000000	9.06E-02	1.56E-02	-3.73E-01	7.31E-01	0.00E+00	0.00E+00	0.00E+00	0.00E+00
	3400000000	9.49E-02	3.10E-02	-4.89E-01	6.47E-01	0.00E+00	0.00E+00	0.00E+00	0.00E+00
	3450000000	1.85E-01	9.54E-02	-5.10E-01	5.07E-01	0.00E+00	0.00E+00	0.00E+00	0.00E+00
	3500000000	2.78E-01	-6.63E-03	-5.75E-01	2.76E-01	0.00E+00	0.00E+00	0.00E+00	0.00E+00
	3550000000	2.68E-01	-1.52E-01	-6.48E-01	3.06E-02	0.00E+00	0.00E+00	0.00E+00	0.00E+00
	3600000000	1.48E-01	-1.96E-01	-7.19E-01	-1.40E-01	0.00E+00	0.00E+00	0.00E+00	0.00E+00
	3650000000	7.59E-02	-1.71E-01	-7.09E-01	-2.99E-01	0.00E+00	0.00E+00	0.00E+00	0.00E+00
	3700000000	2.21E-02	-1.34E-01	-6.55E-01	-4.73E-01	0.00E+00	0.00E+00	0.00E+00	0.00E+00
	3750000000	-1.47E-02	-6.08E-02	-5.83E-01	-6.24E-01	0.00E+00	0.00E+00	0.00E+00	0.00E+00
	3800000000	1.84E-02	2.45E-02	-4.74E-01	-7.23E-01	0.00E+00	0.00E+00	0.00E+00	0.00E+00
	3850000000	8.51E-02	4.02E-02	-3.10E-01	-7.98E-01	0.00E+00	0.00E+00	0.00E+00	0.00E+00
	3900000000	9.99E-02	3.49E-02	-1.30E-01	-8.59E-01	0.00E+00	0.00E+00	0.00E+00	0.00E+00
	3950000000	1.36E-01	8.42E-02	3.72E-02	-8.58E-01	0.00E+00	0.00E+00	0.00E+00	0.00E+00
	4000000000	2.72E-01	8.23E-02	2.39E-01	-8.08E-01	0.00E+00	0.00E+00	0.00E+00	0.00E+00
	4050000000	3.79E-01	-7.90E-02	4.44E-01	-7.59E-01	0.00E+00	0.00E+00	0.00E+00	0.00E+00
	4100000000	3.07E-01	-2.93E-01	5.90E-01	-6.83E-01	0.00E+00	0.00E+00	0.00E+00	0.00E+00
	4150000000	8.89E-02	-3.76E-01	7.19E-01	-5.35E-01	0.00E+00	0.00E+00	0.00E+00	0.00E+00
	4200000000	-9.12E-02	-2.73E-01	8.50E-01	-3.81E-01	0.00E+00	0.00E+00	0.00E+00	0.00E+00
	4250000000	-1.34E-01	-1.36E-01	9.13E-01	-2.36E-01	0.00E+00	0.00E+00	0.00E+00	0.00E+00
	4300000000	-1.51E-01	-3.36E-02	9.14E-01	-4.90E-02	0.00E+00	0.00E+00	0.00E+00	0.00E+00
	4350000000	-1.24E-01	1.39E-01	8.98E-01	1.30E-01	0.00E+00	0.00E+00	0.00E+00	0.00E+00
	4400000000	9.18E-02	2.81E-01	8.19E-01	2.97E-01	0.00E+00	0.00E+00	0.00E+00	0.00E+00
	4450000000	3.80E-01	1.74E-01	6.90E-01	4.72E-01	0.00E+00	0.00E+00	0.00E+00	0.00E+00
	4500000000	4.69E-01	-1.18E-01	5.52E-01	6.35E-01	0.00E+00	0.00E+00	0.00E+00	0.00E+00
	4550000000	3.15E-01	-3.44E-01	3.87E-01	7.41E-01	0.00E+00	0.00E+00	0.00E+00	0.00E+00
	4600000000	1.09E-01	-3.53E-01	1.79E-01	8.30E-01	0.00E+00	0.00E+00	0.00E+00	0.00E+00
	4650000000	3.51E-02	-3.07E-01	-2.13E-02	8.70E-01	0.00E+00	0.00E+00	0.00E+00	0.00E+00
	4700000000	-6.92E-02	-2.40E-01	-2.45E-01	8.85E-01	0.00E+00	0.00E+00	0.00E+00	0.00E+00
	4750000000	-1.10E-01	-1.66E-01	-4.30E-01	8.18E-01	0.00E+00	0.00E+00	0.00E+00	0.00E+00
	4800000000	-1.34E-01	1.59E-03	-6.87E-01	7.36E-01	0.00E+00	0.00E+00	0.00E+00	0.00E+00
	4850000000	5.43E-02	1.36E-01	-9.28E-01	7.07E-01	0.00E+00	0.00E+00	0.00E+00	0.00E+00
	4900000000	2.51E-01	8.47E-03	-1.03E+00	6.73E-01	0.00E+00	0.00E+00	0.00E+00	0.00E+00
	4950000000	1.97E-01	-1.88E-01	-1.04E+00	5.41E-01	0.00E+00	0.00E+00	0.00E+00	0.00E+00
	5000000000	2.15E-02	-1.67E-01	-1.06E+00	3.53E-01	0.00E+00	0.00E+00	0.00E+00	0.00E+00
	5050000000	4.94E-02	7.68E-03	-1.08E+00	6.25E-02	0.00E+00	0.00E+00	0.00E+00	0.00E+00
	5100000000	2.48E-01	-1.97E-02	-1.08E+00	-3.47E-02	0.00E+00	0.00E+00	0.00E+00	0.00E+00
	5150000000	2.71E-01	-2.41E-01	-9.91E-01	-2.06E-01	0.00E+00	0.00E+00	0.00E+00	0.00E+00
	5200000000	7.02E-02	-3.46E-01	-8.72E-01	-3.75E-01	0.00E+00	0.00E+00	0.00E+00	0.00E+00
	5250000000	-7.70E-02	-2.31E-01	-7.42E-01	-5.47E-01	0.00E+00	0.00E+00	0.00E+00	0.00E+00
	5300000000	-3.76E-02	-1.43E-01	-6.01E-01	-6.87E-01	0.00E+00	0.00E+00	0.00E+00	0.00E+00
	5350000000	-5.23E-02	-1.86E-01	-4.52E-01	-7.46E-01	0.00E+00	0.00E+00	0.00E+00	0.00E+00
	5400000000	-1.60E-01	-1.12E-01	-2.40E-01	-7.98E-01	0.00E+00	0.00E+00	0.00E+00	0.00E+00
	5450000000	-1.02E-01	7.01E-02	-5.90E-02	-8.46E-01	0.00E+00	0.00E+00	0.00E+00	0.00E+00
	5500000000	1.21E-01	6.66E-02	7.20E-02	-8.08E-01	0.00E+00	0.00E+00	0.00E+00	0.00E+00
	5550000000	1.81E-01	-1.27E-01	2.42E-01	-6.91E-01	0.00E+00	0.00E+00	0.00E+00	0.00E+00
	5600000000	4.49E-02	-2.00E-01	4.04E-01	-5.56E-01	0.00E+00	0.00E+00	0.00E+00	0.00E+00
	5650000000	3.92E-02	-1.35E-01	5.55E-01	-4.07E-01	0.00E+00	0.00E+00	0.00E+00	0.00E+00
	5700000000	8.69E-02	-1.43E-01	6.63E-01	-2.72E-01	0.00E+00	0.00E+00	0.00E+00	0.00E+00
	5750000000	1.21E-01	-2.28E-01	7.14E-01	-1.13E-01	0.00E+00	0.00E+00	0.00E+00	0.00E+00
	5800000000	5.85E-02	-3.22E-01	7.34E-01	6.15E-02	0.00E+00	0.00E+00	0.00E+00	0.00E+00
	5850000000	-6.19E-02	-3.20E-01	7.04E-01	2.21E-01	0.00E+00	0.00E+00	0.00E+00	0.00E+00
	5900000000	-8.39E-02	-2.24E-01	6.57E-01	3.93E-01	0.00E+00	0.00E+00	0.00E+00	0.00E+00
	5950000000	-1.30E-02	-2.33E-01	5.94E-01	5.02E-01	0.00E+00	0.00E+00	0.00E+00	0.00E+00
	6000000000	-1.23E-01	-2.74E-01	7.47E-01	4.48E-02	0.00E+00	0.00E+00	0.00E+00	0.00E+00
