! NanoVNA-App									
! Date: 2024-03-20 21:10:50									
! Start: 1GHz Stop: 6GHz Points: 101									
! S-Parameter data: F S11 S21 S12 S22									
# Hz S RI R 50									
!	Frequency	S11_Real	S11_Imag	S21_Real	S21_Imag	S12_Real	S12_Imag	S22_Real	S22_Imag
	1000000000	1.23E-01	-2.46E-02	-5.55E-01	-8.78E-01	0.00E+00	0.00E+00	0.00E+00	0.00E+00
	1050000000	5.25E-02	-2.37E-02	-3.73E-01	-9.65E-01	0.00E+00	0.00E+00	0.00E+00	0.00E+00
	1100000000	4.91E-02	-1.11E-02	-1.66E-01	-1.02E+00	0.00E+00	0.00E+00	0.00E+00	0.00E+00
	1150000000	3.01E-02	-4.52E-02	3.96E-02	-1.03E+00	0.00E+00	0.00E+00	0.00E+00	0.00E+00
	1200000000	-4.92E-02	-3.49E-02	2.46E-01	-9.88E-01	0.00E+00	0.00E+00	0.00E+00	0.00E+00
	1250000000	-7.61E-02	6.82E-02	4.50E-01	-9.07E-01	0.00E+00	0.00E+00	0.00E+00	0.00E+00
	1300000000	1.82E-02	1.36E-01	6.30E-01	-8.00E-01	0.00E+00	0.00E+00	0.00E+00	0.00E+00
	1350000000	1.04E-01	6.42E-02	7.71E-01	-6.50E-01	0.00E+00	0.00E+00	0.00E+00	0.00E+00
	1400000000	7.64E-02	3.89E-03	9.01E-01	-4.81E-01	0.00E+00	0.00E+00	0.00E+00	0.00E+00
	1450000000	1.92E-02	1.90E-02	9.73E-01	-2.99E-01	0.00E+00	0.00E+00	0.00E+00	0.00E+00
	1500000000	5.08E-02	6.09E-02	9.99E-01	-1.03E-01	0.00E+00	0.00E+00	0.00E+00	0.00E+00
	1550000000	9.09E-02	6.14E-03	9.88E-01	1.00E-01	0.00E+00	0.00E+00	0.00E+00	0.00E+00
	1600000000	8.92E-03	-5.14E-02	9.38E-01	2.92E-01	0.00E+00	0.00E+00	0.00E+00	0.00E+00
	1650000000	-9.15E-02	4.67E-02	8.53E-01	4.57E-01	0.00E+00	0.00E+00	0.00E+00	0.00E+00
	1700000000	-1.68E-02	2.02E-01	7.24E-01	6.00E-01	0.00E+00	0.00E+00	0.00E+00	0.00E+00
	1750000000	1.71E-01	1.96E-01	5.67E-01	7.32E-01	0.00E+00	0.00E+00	0.00E+00	0.00E+00
	1800000000	2.44E-01	3.39E-02	4.18E-01	8.38E-01	0.00E+00	0.00E+00	0.00E+00	0.00E+00
	1850000000	1.52E-01	-8.29E-02	2.64E-01	8.91E-01	0.00E+00	0.00E+00	0.00E+00	0.00E+00
	1900000000	5.48E-02	-6.21E-02	1.20E-01	9.02E-01	0.00E+00	0.00E+00	0.00E+00	0.00E+00
	1950000000	4.13E-02	-1.76E-02	8.14E-03	8.80E-01	0.00E+00	0.00E+00	0.00E+00	0.00E+00
	2000000000	7.01E-02	-1.12E-02	-4.81E-02	7.96E-01	0.00E+00	0.00E+00	0.00E+00	0.00E+00
	2050000000	5.77E-02	-1.85E-01	-3.35E-02	5.49E-01	0.00E+00	0.00E+00	0.00E+00	0.00E+00
	2100000000	-3.89E-01	-2.39E-02	-2.76E-01	1.89E-01	0.00E+00	0.00E+00	0.00E+00	0.00E+00
	2150000000	-1.72E-01	4.69E-01	-4.89E-01	5.54E-02	0.00E+00	0.00E+00	0.00E+00	0.00E+00
	2200000000	2.78E-01	4.69E-01	-5.85E-01	-6.10E-02	0.00E+00	0.00E+00	0.00E+00	0.00E+00
	2250000000	5.13E-01	1.59E-01	-6.16E-01	-1.70E-01	0.00E+00	0.00E+00	0.00E+00	0.00E+00
	2300000000	4.46E-01	-1.80E-01	-5.86E-01	-2.78E-01	0.00E+00	0.00E+00	0.00E+00	0.00E+00
	2350000000	1.82E-01	-3.51E-01	-5.13E-01	-3.85E-01	0.00E+00	0.00E+00	0.00E+00	0.00E+00
	2400000000	-9.89E-02	-2.87E-01	-4.25E-01	-4.79E-01	0.00E+00	0.00E+00	0.00E+00	0.00E+00
	2450000000	-2.28E-01	-4.70E-02	-3.33E-01	-5.36E-01	0.00E+00	0.00E+00	0.00E+00	0.00E+00
	2500000000	-9.23E-02	1.38E-01	-2.60E-01	-5.02E-01	0.00E+00	0.00E+00	0.00E+00	0.00E+00
	2550000000	-1.31E-01	1.19E-01	6.93E-03	-3.45E-01	0.00E+00	0.00E+00	0.00E+00	0.00E+00
	2600000000	4.61E-02	3.42E-01	2.57E-01	-4.01E-01	0.00E+00	0.00E+00	0.00E+00	0.00E+00
	2650000000	3.14E-01	2.41E-01	3.99E-01	-3.77E-01	0.00E+00	0.00E+00	0.00E+00	0.00E+00
	2700000000	3.78E-01	-1.43E-02	5.23E-01	-2.97E-01	0.00E+00	0.00E+00	0.00E+00	0.00E+00
	2750000000	2.36E-01	-1.94E-01	6.28E-01	-1.84E-01	0.00E+00	0.00E+00	0.00E+00	0.00E+00
	2800000000	4.51E-02	-1.93E-01	7.12E-01	-6.12E-02	0.00E+00	0.00E+00	0.00E+00	0.00E+00
	2850000000	-4.10E-02	-8.28E-02	7.54E-01	6.54E-02	0.00E+00	0.00E+00	0.00E+00	0.00E+00
	2900000000	-2.40E-02	2.08E-02	7.33E-01	1.92E-01	0.00E+00	0.00E+00	0.00E+00	0.00E+00
	2950000000	1.91E-02	5.48E-02	6.56E-01	3.68E-01	0.00E+00	0.00E+00	0.00E+00	0.00E+00
	3000000000	9.22E-02	1.12E-01	6.11E-01	5.24E-01	0.00E+00	0.00E+00	0.00E+00	0.00E+00
	3050000000	2.01E-01	6.33E-02	5.08E-01	6.37E-01	0.00E+00	0.00E+00	0.00E+00	0.00E+00
	3100000000	2.21E-01	-5.74E-02	3.70E-01	7.46E-01	0.00E+00	0.00E+00	0.00E+00	0.00E+00
	3150000000	1.37E-01	-1.32E-01	2.38E-01	8.31E-01	0.00E+00	0.00E+00	0.00E+00	0.00E+00
	3200000000	4.84E-02	-1.02E-01	9.63E-02	8.55E-01	0.00E+00	0.00E+00	0.00E+00	0.00E+00
	3250000000	3.47E-02	-3.19E-02	-7.04E-02	8.43E-01	0.00E+00	0.00E+00	0.00E+00	0.00E+00
	3300000000	6.66E-02	3.66E-03	-2.33E-01	8.10E-01	0.00E+00	0.00E+00	0.00E+00	0.00E+00
	3350000000	9.12E-02	9.31E-03	-3.79E-01	7.41E-01	0.00E+00	0.00E+00	0.00E+00	0.00E+00
	3400000000	9.37E-02	2.75E-02	-4.95E-01	6.55E-01	0.00E+00	0.00E+00	0.00E+00	0.00E+00
	3450000000	1.85E-01	9.20E-02	-5.20E-01	5.06E-01	0.00E+00	0.00E+00	0.00E+00	0.00E+00
	3500000000	2.73E-01	-1.10E-02	-5.91E-01	2.70E-01	0.00E+00	0.00E+00	0.00E+00	0.00E+00
	3550000000	2.56E-01	-1.55E-01	-6.69E-01	2.33E-02	0.00E+00	0.00E+00	0.00E+00	0.00E+00
	3600000000	1.40E-01	-1.86E-01	-7.41E-01	-1.44E-01	0.00E+00	0.00E+00	0.00E+00	0.00E+00
	3650000000	7.99E-02	-1.60E-01	-7.28E-01	-3.05E-01	0.00E+00	0.00E+00	0.00E+00	0.00E+00
	3700000000	3.24E-02	-1.31E-01	-6.71E-01	-4.80E-01	0.00E+00	0.00E+00	0.00E+00	0.00E+00
	3750000000	-5.89E-03	-6.53E-02	-5.97E-01	-6.33E-01	0.00E+00	0.00E+00	0.00E+00	0.00E+00
	3800000000	2.23E-02	1.54E-02	-4.86E-01	-7.34E-01	0.00E+00	0.00E+00	0.00E+00	0.00E+00
	3850000000	8.14E-02	3.03E-02	-3.19E-01	-8.11E-01	0.00E+00	0.00E+00	0.00E+00	0.00E+00
	3900000000	9.04E-02	3.04E-02	-1.38E-01	-8.73E-01	0.00E+00	0.00E+00	0.00E+00	0.00E+00
	3950000000	1.28E-01	8.96E-02	2.41E-02	-8.71E-01	0.00E+00	0.00E+00	0.00E+00	0.00E+00
	4000000000	2.72E-01	9.20E-02	2.36E-01	-8.19E-01	0.00E+00	0.00E+00	0.00E+00	0.00E+00
	4050000000	3.85E-01	-7.35E-02	4.42E-01	-7.69E-01	0.00E+00	0.00E+00	0.00E+00	0.00E+00
	4100000000	3.13E-01	-2.94E-01	5.87E-01	-6.92E-01	0.00E+00	0.00E+00	0.00E+00	0.00E+00
	4150000000	9.27E-02	-3.80E-01	7.19E-01	-5.42E-01	0.00E+00	0.00E+00	0.00E+00	0.00E+00
	4200000000	-9.03E-02	-2.77E-01	8.49E-01	-3.88E-01	0.00E+00	0.00E+00	0.00E+00	0.00E+00
	4250000000	-1.36E-01	-1.40E-01	9.14E-01	-2.41E-01	0.00E+00	0.00E+00	0.00E+00	0.00E+00
	4300000000	-1.56E-01	-3.52E-02	9.16E-01	-5.07E-02	0.00E+00	0.00E+00	0.00E+00	0.00E+00
	4350000000	-1.28E-01	1.42E-01	8.99E-01	1.29E-01	0.00E+00	0.00E+00	0.00E+00	0.00E+00
	4400000000	9.24E-02	2.87E-01	8.20E-01	2.97E-01	0.00E+00	0.00E+00	0.00E+00	0.00E+00
	4450000000	3.83E-01	1.77E-01	6.92E-01	4.71E-01	0.00E+00	0.00E+00	0.00E+00	0.00E+00
	4500000000	4.73E-01	-1.17E-01	5.51E-01	6.35E-01	0.00E+00	0.00E+00	0.00E+00	0.00E+00
	4550000000	3.19E-01	-3.45E-01	3.84E-01	7.42E-01	0.00E+00	0.00E+00	0.00E+00	0.00E+00
	4600000000	1.09E-01	-3.58E-01	1.78E-01	8.32E-01	0.00E+00	0.00E+00	0.00E+00	0.00E+00
	4650000000	2.89E-02	-3.06E-01	-2.05E-02	8.76E-01	0.00E+00	0.00E+00	0.00E+00	0.00E+00
	4700000000	-7.21E-02	-2.40E-01	-2.47E-01	8.88E-01	0.00E+00	0.00E+00	0.00E+00	0.00E+00
	4750000000	-1.14E-01	-1.64E-01	-4.35E-01	8.19E-01	0.00E+00	0.00E+00	0.00E+00	0.00E+00
	4800000000	-1.37E-01	6.69E-03	-6.93E-01	7.35E-01	0.00E+00	0.00E+00	0.00E+00	0.00E+00
	4850000000	5.55E-02	1.43E-01	-9.33E-01	7.09E-01	0.00E+00	0.00E+00	0.00E+00	0.00E+00
	4900000000	2.55E-01	1.18E-02	-1.04E+00	6.71E-01	0.00E+00	0.00E+00	0.00E+00	0.00E+00
	4950000000	2.01E-01	-1.89E-01	-1.05E+00	5.41E-01	0.00E+00	0.00E+00	0.00E+00	0.00E+00
	5000000000	2.03E-02	-1.69E-01	-1.07E+00	3.48E-01	0.00E+00	0.00E+00	0.00E+00	0.00E+00
	5050000000	4.50E-02	6.25E-03	-1.09E+00	5.70E-02	0.00E+00	0.00E+00	0.00E+00	0.00E+00
	5100000000	2.45E-01	-1.86E-02	-1.09E+00	-4.34E-02	0.00E+00	0.00E+00	0.00E+00	0.00E+00
	5150000000	2.67E-01	-2.39E-01	-9.97E-01	-2.12E-01	0.00E+00	0.00E+00	0.00E+00	0.00E+00
	5200000000	6.64E-02	-3.43E-01	-8.79E-01	-3.75E-01	0.00E+00	0.00E+00	0.00E+00	0.00E+00
	5250000000	-7.57E-02	-2.30E-01	-7.42E-01	-5.58E-01	0.00E+00	0.00E+00	0.00E+00	0.00E+00
	5300000000	-3.59E-02	-1.42E-01	-6.01E-01	-6.93E-01	0.00E+00	0.00E+00	0.00E+00	0.00E+00
	5350000000	-5.17E-02	-1.87E-01	-4.49E-01	-7.53E-01	0.00E+00	0.00E+00	0.00E+00	0.00E+00
	5400000000	-1.61E-01	-1.13E-01	-2.37E-01	-8.02E-01	0.00E+00	0.00E+00	0.00E+00	0.00E+00
	5450000000	-1.05E-01	7.01E-02	-5.58E-02	-8.50E-01	0.00E+00	0.00E+00	0.00E+00	0.00E+00
	5500000000	1.17E-01	6.75E-02	8.06E-02	-8.10E-01	0.00E+00	0.00E+00	0.00E+00	0.00E+00
	5550000000	1.79E-01	-1.25E-01	2.53E-01	-6.91E-01	0.00E+00	0.00E+00	0.00E+00	0.00E+00
	5600000000	4.41E-02	-1.98E-01	4.09E-01	-5.58E-01	0.00E+00	0.00E+00	0.00E+00	0.00E+00
	5650000000	3.78E-02	-1.32E-01	5.61E-01	-4.07E-01	0.00E+00	0.00E+00	0.00E+00	0.00E+00
	5700000000	8.63E-02	-1.41E-01	6.70E-01	-2.70E-01	0.00E+00	0.00E+00	0.00E+00	0.00E+00
	5750000000	1.27E-01	-2.27E-01	7.21E-01	-1.03E-01	0.00E+00	0.00E+00	0.00E+00	0.00E+00
	5800000000	5.91E-02	-3.25E-01	7.39E-01	6.47E-02	0.00E+00	0.00E+00	0.00E+00	0.00E+00
	5850000000	-6.63E-02	-3.22E-01	7.06E-01	2.27E-01	0.00E+00	0.00E+00	0.00E+00	0.00E+00
	5900000000	-9.38E-02	-2.23E-01	6.61E-01	3.96E-01	0.00E+00	0.00E+00	0.00E+00	0.00E+00
	5950000000	-1.96E-02	-2.28E-01	5.93E-01	5.11E-01	0.00E+00	0.00E+00	0.00E+00	0.00E+00
	6000000000	-1.26E-01	-2.68E-01	7.52E-01	5.11E-02	0.00E+00	0.00E+00	0.00E+00	0.00E+00
