! NanoVNA-App									
! Date: 2024-03-21 02:42:17									
! Start: 1GHz Stop: 6GHz Points: 101									
! S-Parameter data: F S11 S21 S12 S22									
# Hz S RI R 50									
!	Frequency	S11_Real	S11_Imag	S21_Real	S21_Imag	S12_Real	S12_Imag	S22_Real	S22_Imag
	1000000000	1.21E-01	-2.26E-02	-5.56E-01	-8.77E-01	0.00E+00	0.00E+00	0.00E+00	0.00E+00
	1050000000	5.28E-02	-2.23E-02	-3.75E-01	-9.65E-01	0.00E+00	0.00E+00	0.00E+00	0.00E+00
	1100000000	5.00E-02	-1.13E-02	-1.68E-01	-1.02E+00	0.00E+00	0.00E+00	0.00E+00	0.00E+00
	1150000000	2.97E-02	-4.70E-02	3.65E-02	-1.03E+00	0.00E+00	0.00E+00	0.00E+00	0.00E+00
	1200000000	-5.08E-02	-3.69E-02	2.42E-01	-9.89E-01	0.00E+00	0.00E+00	0.00E+00	0.00E+00
	1250000000	-7.84E-02	6.63E-02	4.49E-01	-9.10E-01	0.00E+00	0.00E+00	0.00E+00	0.00E+00
	1300000000	1.45E-02	1.34E-01	6.30E-01	-8.03E-01	0.00E+00	0.00E+00	0.00E+00	0.00E+00
	1350000000	9.95E-02	6.56E-02	7.71E-01	-6.55E-01	0.00E+00	0.00E+00	0.00E+00	0.00E+00
	1400000000	7.24E-02	4.97E-03	9.02E-01	-4.85E-01	0.00E+00	0.00E+00	0.00E+00	0.00E+00
	1450000000	1.74E-02	2.31E-02	9.74E-01	-3.00E-01	0.00E+00	0.00E+00	0.00E+00	0.00E+00
	1500000000	5.30E-02	6.47E-02	1.00E+00	-1.02E-01	0.00E+00	0.00E+00	0.00E+00	0.00E+00
	1550000000	9.67E-02	5.85E-03	9.92E-01	1.01E-01	0.00E+00	0.00E+00	0.00E+00	0.00E+00
	1600000000	1.41E-02	-5.78E-02	9.44E-01	2.92E-01	0.00E+00	0.00E+00	0.00E+00	0.00E+00
	1650000000	-9.27E-02	3.61E-02	8.60E-01	4.65E-01	0.00E+00	0.00E+00	0.00E+00	0.00E+00
	1700000000	-2.48E-02	1.95E-01	7.32E-01	6.06E-01	0.00E+00	0.00E+00	0.00E+00	0.00E+00
	1750000000	1.59E-01	1.96E-01	5.75E-01	7.39E-01	0.00E+00	0.00E+00	0.00E+00	0.00E+00
	1800000000	2.36E-01	4.20E-02	4.24E-01	8.47E-01	0.00E+00	0.00E+00	0.00E+00	0.00E+00
	1850000000	1.52E-01	-7.12E-02	2.69E-01	9.01E-01	0.00E+00	0.00E+00	0.00E+00	0.00E+00
	1900000000	6.51E-02	-5.46E-02	1.22E-01	9.16E-01	0.00E+00	0.00E+00	0.00E+00	0.00E+00
	1950000000	5.42E-02	-2.13E-02	7.35E-03	8.95E-01	0.00E+00	0.00E+00	0.00E+00	0.00E+00
	2000000000	7.61E-02	-2.18E-02	-4.99E-02	8.12E-01	0.00E+00	0.00E+00	0.00E+00	0.00E+00
	2050000000	6.18E-02	-1.95E-01	-3.69E-02	5.69E-01	0.00E+00	0.00E+00	0.00E+00	0.00E+00
	2100000000	-3.96E-01	-4.55E-02	-2.81E-01	2.03E-01	0.00E+00	0.00E+00	0.00E+00	0.00E+00
	2150000000	-1.99E-01	4.66E-01	-5.00E-01	6.56E-02	0.00E+00	0.00E+00	0.00E+00	0.00E+00
	2200000000	2.58E-01	4.86E-01	-6.02E-01	-5.14E-02	0.00E+00	0.00E+00	0.00E+00	0.00E+00
	2250000000	5.12E-01	1.86E-01	-6.42E-01	-1.61E-01	0.00E+00	0.00E+00	0.00E+00	0.00E+00
	2300000000	4.66E-01	-1.58E-01	-6.15E-01	-2.69E-01	0.00E+00	0.00E+00	0.00E+00	0.00E+00
	2350000000	2.19E-01	-3.50E-01	-5.49E-01	-3.77E-01	0.00E+00	0.00E+00	0.00E+00	0.00E+00
	2400000000	-7.15E-02	-3.21E-01	-4.62E-01	-4.71E-01	0.00E+00	0.00E+00	0.00E+00	0.00E+00
	2450000000	-2.42E-01	-9.41E-02	-3.76E-01	-5.33E-01	0.00E+00	0.00E+00	0.00E+00	0.00E+00
	2500000000	-1.35E-01	1.26E-01	-3.11E-01	-5.04E-01	0.00E+00	0.00E+00	0.00E+00	0.00E+00
	2550000000	-1.71E-01	1.40E-01	-4.03E-02	-3.43E-01	0.00E+00	0.00E+00	0.00E+00	0.00E+00
	2600000000	3.93E-02	3.80E-01	2.06E-01	-4.03E-01	0.00E+00	0.00E+00	0.00E+00	0.00E+00
	2650000000	3.39E-01	2.72E-01	3.49E-01	-3.84E-01	0.00E+00	0.00E+00	0.00E+00	0.00E+00
	2700000000	4.17E-01	-1.10E-02	4.76E-01	-3.05E-01	0.00E+00	0.00E+00	0.00E+00	0.00E+00
	2750000000	2.64E-01	-2.22E-01	5.84E-01	-1.97E-01	0.00E+00	0.00E+00	0.00E+00	0.00E+00
	2800000000	4.41E-02	-2.38E-01	6.76E-01	-7.37E-02	0.00E+00	0.00E+00	0.00E+00	0.00E+00
	2850000000	-7.60E-02	-1.07E-01	7.20E-01	4.66E-02	0.00E+00	0.00E+00	0.00E+00	0.00E+00
	2900000000	-6.11E-02	3.31E-02	7.03E-01	1.70E-01	0.00E+00	0.00E+00	0.00E+00	0.00E+00
	2950000000	8.93E-03	8.75E-02	6.31E-01	3.42E-01	0.00E+00	0.00E+00	0.00E+00	0.00E+00
	3000000000	1.08E-01	1.35E-01	5.88E-01	4.98E-01	0.00E+00	0.00E+00	0.00E+00	0.00E+00
	3050000000	2.24E-01	6.68E-02	4.92E-01	6.12E-01	0.00E+00	0.00E+00	0.00E+00	0.00E+00
	3100000000	2.37E-01	-6.74E-02	3.62E-01	7.22E-01	0.00E+00	0.00E+00	0.00E+00	0.00E+00
	3150000000	1.42E-01	-1.49E-01	2.36E-01	8.07E-01	0.00E+00	0.00E+00	0.00E+00	0.00E+00
	3200000000	4.21E-02	-1.17E-01	9.72E-02	8.34E-01	0.00E+00	0.00E+00	0.00E+00	0.00E+00
	3250000000	2.10E-02	-3.70E-02	-6.48E-02	8.24E-01	0.00E+00	0.00E+00	0.00E+00	0.00E+00
	3300000000	5.57E-02	9.63E-03	-2.24E-01	7.93E-01	0.00E+00	0.00E+00	0.00E+00	0.00E+00
	3350000000	8.96E-02	1.86E-02	-3.69E-01	7.28E-01	0.00E+00	0.00E+00	0.00E+00	0.00E+00
	3400000000	9.60E-02	3.20E-02	-4.82E-01	6.48E-01	0.00E+00	0.00E+00	0.00E+00	0.00E+00
	3450000000	1.85E-01	9.67E-02	-5.08E-01	5.05E-01	0.00E+00	0.00E+00	0.00E+00	0.00E+00
	3500000000	2.78E-01	-5.27E-03	-5.70E-01	2.80E-01	0.00E+00	0.00E+00	0.00E+00	0.00E+00
	3550000000	2.72E-01	-1.48E-01	-6.41E-01	3.19E-02	0.00E+00	0.00E+00	0.00E+00	0.00E+00
	3600000000	1.52E-01	-1.99E-01	-7.13E-01	-1.37E-01	0.00E+00	0.00E+00	0.00E+00	0.00E+00
	3650000000	7.69E-02	-1.75E-01	-7.05E-01	-2.97E-01	0.00E+00	0.00E+00	0.00E+00	0.00E+00
	3700000000	2.02E-02	-1.37E-01	-6.50E-01	-4.72E-01	0.00E+00	0.00E+00	0.00E+00	0.00E+00
	3750000000	-1.83E-02	-6.16E-02	-5.81E-01	-6.20E-01	0.00E+00	0.00E+00	0.00E+00	0.00E+00
	3800000000	1.37E-02	2.61E-02	-4.75E-01	-7.18E-01	0.00E+00	0.00E+00	0.00E+00	0.00E+00
	3850000000	8.26E-02	4.52E-02	-3.09E-01	-7.95E-01	0.00E+00	0.00E+00	0.00E+00	0.00E+00
	3900000000	1.03E-01	4.03E-02	-1.35E-01	-8.54E-01	0.00E+00	0.00E+00	0.00E+00	0.00E+00
	3950000000	1.42E-01	8.63E-02	3.43E-02	-8.54E-01	0.00E+00	0.00E+00	0.00E+00	0.00E+00
	4000000000	2.76E-01	7.96E-02	2.41E-01	-8.04E-01	0.00E+00	0.00E+00	0.00E+00	0.00E+00
	4050000000	3.80E-01	-8.44E-02	4.42E-01	-7.56E-01	0.00E+00	0.00E+00	0.00E+00	0.00E+00
	4100000000	3.04E-01	-2.97E-01	5.88E-01	-6.79E-01	0.00E+00	0.00E+00	0.00E+00	0.00E+00
	4150000000	8.50E-02	-3.77E-01	7.18E-01	-5.32E-01	0.00E+00	0.00E+00	0.00E+00	0.00E+00
	4200000000	-9.46E-02	-2.71E-01	8.46E-01	-3.81E-01	0.00E+00	0.00E+00	0.00E+00	0.00E+00
	4250000000	-1.35E-01	-1.32E-01	9.10E-01	-2.36E-01	0.00E+00	0.00E+00	0.00E+00	0.00E+00
	4300000000	-1.49E-01	-3.08E-02	9.14E-01	-5.11E-02	0.00E+00	0.00E+00	0.00E+00	0.00E+00
	4350000000	-1.22E-01	1.38E-01	8.97E-01	1.30E-01	0.00E+00	0.00E+00	0.00E+00	0.00E+00
	4400000000	9.43E-02	2.80E-01	8.20E-01	2.96E-01	0.00E+00	0.00E+00	0.00E+00	0.00E+00
	4450000000	3.79E-01	1.71E-01	6.90E-01	4.69E-01	0.00E+00	0.00E+00	0.00E+00	0.00E+00
	4500000000	4.68E-01	-1.20E-01	5.53E-01	6.35E-01	0.00E+00	0.00E+00	0.00E+00	0.00E+00
	4550000000	3.12E-01	-3.45E-01	3.86E-01	7.39E-01	0.00E+00	0.00E+00	0.00E+00	0.00E+00
	4600000000	1.07E-01	-3.51E-01	1.86E-01	8.28E-01	0.00E+00	0.00E+00	0.00E+00	0.00E+00
	4650000000	3.51E-02	-3.03E-01	-1.16E-02	8.69E-01	0.00E+00	0.00E+00	0.00E+00	0.00E+00
	4700000000	-6.63E-02	-2.41E-01	-2.45E-01	8.83E-01	0.00E+00	0.00E+00	0.00E+00	0.00E+00
	4750000000	-1.07E-01	-1.66E-01	-4.24E-01	8.19E-01	0.00E+00	0.00E+00	0.00E+00	0.00E+00
	4800000000	-1.31E-01	-2.14E-03	-6.84E-01	7.37E-01	0.00E+00	0.00E+00	0.00E+00	0.00E+00
	4850000000	5.55E-02	1.33E-01	-9.21E-01	7.11E-01	0.00E+00	0.00E+00	0.00E+00	0.00E+00
	4900000000	2.50E-01	4.97E-03	-1.03E+00	6.74E-01	0.00E+00	0.00E+00	0.00E+00	0.00E+00
	4950000000	1.94E-01	-1.90E-01	-1.04E+00	5.46E-01	0.00E+00	0.00E+00	0.00E+00	0.00E+00
	5000000000	1.91E-02	-1.64E-01	-1.06E+00	3.52E-01	0.00E+00	0.00E+00	0.00E+00	0.00E+00
	5050000000	5.09E-02	1.14E-02	-1.08E+00	6.92E-02	0.00E+00	0.00E+00	0.00E+00	0.00E+00
	5100000000	2.52E-01	-1.92E-02	-1.08E+00	-2.87E-02	0.00E+00	0.00E+00	0.00E+00	0.00E+00
	5150000000	2.75E-01	-2.42E-01	-9.89E-01	-1.99E-01	0.00E+00	0.00E+00	0.00E+00	0.00E+00
	5200000000	7.33E-02	-3.49E-01	-8.72E-01	-3.69E-01	0.00E+00	0.00E+00	0.00E+00	0.00E+00
	5250000000	-7.41E-02	-2.35E-01	-7.43E-01	-5.42E-01	0.00E+00	0.00E+00	0.00E+00	0.00E+00
	5300000000	-3.76E-02	-1.46E-01	-6.03E-01	-6.81E-01	0.00E+00	0.00E+00	0.00E+00	0.00E+00
	5350000000	-5.65E-02	-1.86E-01	-4.54E-01	-7.40E-01	0.00E+00	0.00E+00	0.00E+00	0.00E+00
	5400000000	-1.60E-01	-1.10E-01	-2.45E-01	-7.93E-01	0.00E+00	0.00E+00	0.00E+00	0.00E+00
	5450000000	-9.92E-02	7.22E-02	-6.13E-02	-8.43E-01	0.00E+00	0.00E+00	0.00E+00	0.00E+00
	5500000000	1.25E-01	6.61E-02	6.74E-02	-8.06E-01	0.00E+00	0.00E+00	0.00E+00	0.00E+00
	5550000000	1.84E-01	-1.29E-01	2.26E-01	-6.97E-01	0.00E+00	0.00E+00	0.00E+00	0.00E+00
	5600000000	4.77E-02	-2.04E-01	4.00E-01	-5.57E-01	0.00E+00	0.00E+00	0.00E+00	0.00E+00
	5650000000	3.77E-02	-1.37E-01	5.49E-01	-4.12E-01	0.00E+00	0.00E+00	0.00E+00	0.00E+00
	5700000000	8.84E-02	-1.44E-01	6.60E-01	-2.72E-01	0.00E+00	0.00E+00	0.00E+00	0.00E+00
	5750000000	1.24E-01	-2.28E-01	7.10E-01	-1.11E-01	0.00E+00	0.00E+00	0.00E+00	0.00E+00
	5800000000	6.05E-02	-3.23E-01	7.32E-01	5.59E-02	0.00E+00	0.00E+00	0.00E+00	0.00E+00
	5850000000	-6.13E-02	-3.19E-01	7.01E-01	2.18E-01	0.00E+00	0.00E+00	0.00E+00	0.00E+00
	5900000000	-8.11E-02	-2.24E-01	6.58E-01	3.85E-01	0.00E+00	0.00E+00	0.00E+00	0.00E+00
	5950000000	-9.27E-03	-2.35E-01	5.92E-01	4.98E-01	0.00E+00	0.00E+00	0.00E+00	0.00E+00
	6000000000	-1.21E-01	-2.77E-01	7.44E-01	4.40E-02	0.00E+00	0.00E+00	0.00E+00	0.00E+00
