! NanoVNA-App									
! Date: 2024-03-20 21:08:49									
! Start: 1GHz Stop: 6GHz Points: 101									
! S-Parameter data: F S11 S21 S12 S22									
# Hz S RI R 50									
!	Frequency	S11_Real	S11_Imag	S21_Real	S21_Imag	S12_Real	S12_Imag	S22_Real	S22_Imag
	1000000000	1.23E-01	-2.42E-02	-5.54E-01	-8.79E-01	0.00E+00	0.00E+00	0.00E+00	0.00E+00
	1050000000	5.27E-02	-2.36E-02	-3.73E-01	-9.66E-01	0.00E+00	0.00E+00	0.00E+00	0.00E+00
	1100000000	4.94E-02	-1.10E-02	-1.66E-01	-1.02E+00	0.00E+00	0.00E+00	0.00E+00	0.00E+00
	1150000000	3.00E-02	-4.57E-02	3.72E-02	-1.03E+00	0.00E+00	0.00E+00	0.00E+00	0.00E+00
	1200000000	-4.93E-02	-3.50E-02	2.46E-01	-9.89E-01	0.00E+00	0.00E+00	0.00E+00	0.00E+00
	1250000000	-7.63E-02	6.82E-02	4.50E-01	-9.08E-01	0.00E+00	0.00E+00	0.00E+00	0.00E+00
	1300000000	1.80E-02	1.36E-01	6.30E-01	-8.00E-01	0.00E+00	0.00E+00	0.00E+00	0.00E+00
	1350000000	1.03E-01	6.44E-02	7.71E-01	-6.50E-01	0.00E+00	0.00E+00	0.00E+00	0.00E+00
	1400000000	7.64E-02	4.16E-03	9.01E-01	-4.82E-01	0.00E+00	0.00E+00	0.00E+00	0.00E+00
	1450000000	1.92E-02	1.92E-02	9.72E-01	-2.98E-01	0.00E+00	0.00E+00	0.00E+00	0.00E+00
	1500000000	5.09E-02	6.11E-02	9.99E-01	-1.02E-01	0.00E+00	0.00E+00	0.00E+00	0.00E+00
	1550000000	9.11E-02	5.90E-03	9.88E-01	9.95E-02	0.00E+00	0.00E+00	0.00E+00	0.00E+00
	1600000000	8.76E-03	-5.16E-02	9.40E-01	2.88E-01	0.00E+00	0.00E+00	0.00E+00	0.00E+00
	1650000000	-9.18E-02	4.66E-02	8.53E-01	4.58E-01	0.00E+00	0.00E+00	0.00E+00	0.00E+00
	1700000000	-1.66E-02	2.03E-01	7.24E-01	6.01E-01	0.00E+00	0.00E+00	0.00E+00	0.00E+00
	1750000000	1.70E-01	1.96E-01	5.69E-01	7.30E-01	0.00E+00	0.00E+00	0.00E+00	0.00E+00
	1800000000	2.44E-01	3.40E-02	4.16E-01	8.38E-01	0.00E+00	0.00E+00	0.00E+00	0.00E+00
	1850000000	1.52E-01	-8.34E-02	2.65E-01	8.91E-01	0.00E+00	0.00E+00	0.00E+00	0.00E+00
	1900000000	5.41E-02	-6.24E-02	1.23E-01	9.02E-01	0.00E+00	0.00E+00	0.00E+00	0.00E+00
	1950000000	4.02E-02	-1.71E-02	7.67E-03	8.79E-01	0.00E+00	0.00E+00	0.00E+00	0.00E+00
	2000000000	7.02E-02	-9.34E-03	-4.91E-02	7.96E-01	0.00E+00	0.00E+00	0.00E+00	0.00E+00
	2050000000	6.09E-02	-1.84E-01	-3.33E-02	5.49E-01	0.00E+00	0.00E+00	0.00E+00	0.00E+00
	2100000000	-3.89E-01	-2.75E-02	-2.76E-01	1.89E-01	0.00E+00	0.00E+00	0.00E+00	0.00E+00
	2150000000	-1.74E-01	4.68E-01	-4.90E-01	5.48E-02	0.00E+00	0.00E+00	0.00E+00	0.00E+00
	2200000000	2.75E-01	4.70E-01	-5.87E-01	-6.28E-02	0.00E+00	0.00E+00	0.00E+00	0.00E+00
	2250000000	5.12E-01	1.61E-01	-6.17E-01	-1.71E-01	0.00E+00	0.00E+00	0.00E+00	0.00E+00
	2300000000	4.47E-01	-1.79E-01	-5.86E-01	-2.79E-01	0.00E+00	0.00E+00	0.00E+00	0.00E+00
	2350000000	1.84E-01	-3.48E-01	-5.13E-01	-3.87E-01	0.00E+00	0.00E+00	0.00E+00	0.00E+00
	2400000000	-9.72E-02	-2.88E-01	-4.25E-01	-4.80E-01	0.00E+00	0.00E+00	0.00E+00	0.00E+00
	2450000000	-2.27E-01	-4.81E-02	-3.34E-01	-5.37E-01	0.00E+00	0.00E+00	0.00E+00	0.00E+00
	2500000000	-9.17E-02	1.37E-01	-2.62E-01	-5.03E-01	0.00E+00	0.00E+00	0.00E+00	0.00E+00
	2550000000	-1.32E-01	1.18E-01	7.03E-03	-3.47E-01	0.00E+00	0.00E+00	0.00E+00	0.00E+00
	2600000000	4.35E-02	3.41E-01	2.57E-01	-4.03E-01	0.00E+00	0.00E+00	0.00E+00	0.00E+00
	2650000000	3.13E-01	2.43E-01	3.99E-01	-3.80E-01	0.00E+00	0.00E+00	0.00E+00	0.00E+00
	2700000000	3.79E-01	-1.38E-02	5.23E-01	-3.02E-01	0.00E+00	0.00E+00	0.00E+00	0.00E+00
	2750000000	2.38E-01	-1.94E-01	6.28E-01	-1.87E-01	0.00E+00	0.00E+00	0.00E+00	0.00E+00
	2800000000	4.71E-02	-1.93E-01	7.12E-01	-6.39E-02	0.00E+00	0.00E+00	0.00E+00	0.00E+00
	2850000000	-3.97E-02	-8.39E-02	7.54E-01	6.40E-02	0.00E+00	0.00E+00	0.00E+00	0.00E+00
	2900000000	-2.46E-02	1.82E-02	7.34E-01	1.91E-01	0.00E+00	0.00E+00	0.00E+00	0.00E+00
	2950000000	1.67E-02	5.34E-02	6.58E-01	3.66E-01	0.00E+00	0.00E+00	0.00E+00	0.00E+00
	3000000000	9.01E-02	1.13E-01	6.11E-01	5.25E-01	0.00E+00	0.00E+00	0.00E+00	0.00E+00
	3050000000	2.00E-01	6.57E-02	5.11E-01	6.35E-01	0.00E+00	0.00E+00	0.00E+00	0.00E+00
	3100000000	2.21E-01	-5.43E-02	3.72E-01	7.45E-01	0.00E+00	0.00E+00	0.00E+00	0.00E+00
	3150000000	1.39E-01	-1.31E-01	2.42E-01	8.29E-01	0.00E+00	0.00E+00	0.00E+00	0.00E+00
	3200000000	5.10E-02	-1.02E-01	9.78E-02	8.55E-01	0.00E+00	0.00E+00	0.00E+00	0.00E+00
	3250000000	3.56E-02	-3.45E-02	-6.80E-02	8.43E-01	0.00E+00	0.00E+00	0.00E+00	0.00E+00
	3300000000	6.49E-02	2.23E-03	-2.31E-01	8.08E-01	0.00E+00	0.00E+00	0.00E+00	0.00E+00
	3350000000	8.93E-02	9.47E-03	-3.78E-01	7.41E-01	0.00E+00	0.00E+00	0.00E+00	0.00E+00
	3400000000	9.29E-02	2.85E-02	-4.96E-01	6.53E-01	0.00E+00	0.00E+00	0.00E+00	0.00E+00
	3450000000	1.84E-01	9.17E-02	-5.20E-01	5.06E-01	0.00E+00	0.00E+00	0.00E+00	0.00E+00
	3500000000	2.71E-01	-8.30E-03	-5.90E-01	2.74E-01	0.00E+00	0.00E+00	0.00E+00	0.00E+00
	3550000000	2.60E-01	-1.52E-01	-6.67E-01	2.69E-02	0.00E+00	0.00E+00	0.00E+00	0.00E+00
	3600000000	1.43E-01	-1.88E-01	-7.38E-01	-1.42E-01	0.00E+00	0.00E+00	0.00E+00	0.00E+00
	3650000000	7.97E-02	-1.63E-01	-7.26E-01	-3.02E-01	0.00E+00	0.00E+00	0.00E+00	0.00E+00
	3700000000	3.04E-02	-1.32E-01	-6.69E-01	-4.79E-01	0.00E+00	0.00E+00	0.00E+00	0.00E+00
	3750000000	-7.76E-03	-6.46E-02	-5.95E-01	-6.31E-01	0.00E+00	0.00E+00	0.00E+00	0.00E+00
	3800000000	2.22E-02	1.68E-02	-4.86E-01	-7.32E-01	0.00E+00	0.00E+00	0.00E+00	0.00E+00
	3850000000	8.22E-02	3.07E-02	-3.17E-01	-8.10E-01	0.00E+00	0.00E+00	0.00E+00	0.00E+00
	3900000000	9.07E-02	3.01E-02	-1.40E-01	-8.72E-01	0.00E+00	0.00E+00	0.00E+00	0.00E+00
	3950000000	1.28E-01	8.94E-02	2.66E-02	-8.71E-01	0.00E+00	0.00E+00	0.00E+00	0.00E+00
	4000000000	2.71E-01	9.20E-02	2.34E-01	-8.21E-01	0.00E+00	0.00E+00	0.00E+00	0.00E+00
	4050000000	3.86E-01	-7.40E-02	4.42E-01	-7.70E-01	0.00E+00	0.00E+00	0.00E+00	0.00E+00
	4100000000	3.14E-01	-2.94E-01	5.90E-01	-6.91E-01	0.00E+00	0.00E+00	0.00E+00	0.00E+00
	4150000000	9.29E-02	-3.80E-01	7.19E-01	-5.42E-01	0.00E+00	0.00E+00	0.00E+00	0.00E+00
	4200000000	-8.98E-02	-2.78E-01	8.50E-01	-3.90E-01	0.00E+00	0.00E+00	0.00E+00	0.00E+00
	4250000000	-1.36E-01	-1.41E-01	9.16E-01	-2.40E-01	0.00E+00	0.00E+00	0.00E+00	0.00E+00
	4300000000	-1.56E-01	-3.48E-02	9.16E-01	-5.25E-02	0.00E+00	0.00E+00	0.00E+00	0.00E+00
	4350000000	-1.29E-01	1.43E-01	8.99E-01	1.29E-01	0.00E+00	0.00E+00	0.00E+00	0.00E+00
	4400000000	9.25E-02	2.88E-01	8.22E-01	2.95E-01	0.00E+00	0.00E+00	0.00E+00	0.00E+00
	4450000000	3.84E-01	1.78E-01	6.93E-01	4.70E-01	0.00E+00	0.00E+00	0.00E+00	0.00E+00
	4500000000	4.74E-01	-1.17E-01	5.54E-01	6.34E-01	0.00E+00	0.00E+00	0.00E+00	0.00E+00
	4550000000	3.19E-01	-3.46E-01	3.85E-01	7.41E-01	0.00E+00	0.00E+00	0.00E+00	0.00E+00
	4600000000	1.10E-01	-3.58E-01	1.79E-01	8.31E-01	0.00E+00	0.00E+00	0.00E+00	0.00E+00
	4650000000	2.88E-02	-3.07E-01	-1.97E-02	8.77E-01	0.00E+00	0.00E+00	0.00E+00	0.00E+00
	4700000000	-7.22E-02	-2.40E-01	-2.49E-01	8.87E-01	0.00E+00	0.00E+00	0.00E+00	0.00E+00
	4750000000	-1.15E-01	-1.64E-01	-4.32E-01	8.20E-01	0.00E+00	0.00E+00	0.00E+00	0.00E+00
	4800000000	-1.37E-01	6.59E-03	-6.93E-01	7.35E-01	0.00E+00	0.00E+00	0.00E+00	0.00E+00
	4850000000	5.54E-02	1.43E-01	-9.33E-01	7.09E-01	0.00E+00	0.00E+00	0.00E+00	0.00E+00
	4900000000	2.55E-01	1.23E-02	-1.04E+00	6.74E-01	0.00E+00	0.00E+00	0.00E+00	0.00E+00
	4950000000	2.02E-01	-1.89E-01	-1.05E+00	5.38E-01	0.00E+00	0.00E+00	0.00E+00	0.00E+00
	5000000000	2.20E-02	-1.70E-01	-1.07E+00	3.48E-01	0.00E+00	0.00E+00	0.00E+00	0.00E+00
	5050000000	4.56E-02	5.57E-03	-1.09E+00	5.99E-02	0.00E+00	0.00E+00	0.00E+00	0.00E+00
	5100000000	2.44E-01	-1.95E-02	-1.09E+00	-4.15E-02	0.00E+00	0.00E+00	0.00E+00	0.00E+00
	5150000000	2.67E-01	-2.39E-01	-9.97E-01	-2.09E-01	0.00E+00	0.00E+00	0.00E+00	0.00E+00
	5200000000	6.82E-02	-3.44E-01	-8.75E-01	-3.84E-01	0.00E+00	0.00E+00	0.00E+00	0.00E+00
	5250000000	-7.77E-02	-2.28E-01	-7.43E-01	-5.54E-01	0.00E+00	0.00E+00	0.00E+00	0.00E+00
	5300000000	-3.56E-02	-1.41E-01	-5.99E-01	-6.95E-01	0.00E+00	0.00E+00	0.00E+00	0.00E+00
	5350000000	-5.34E-02	-1.85E-01	-4.53E-01	-7.51E-01	0.00E+00	0.00E+00	0.00E+00	0.00E+00
	5400000000	-1.59E-01	-1.14E-01	-2.35E-01	-8.03E-01	0.00E+00	0.00E+00	0.00E+00	0.00E+00
	5450000000	-1.04E-01	6.89E-02	-5.71E-02	-8.50E-01	0.00E+00	0.00E+00	0.00E+00	0.00E+00
	5500000000	1.17E-01	6.71E-02	7.81E-02	-8.12E-01	0.00E+00	0.00E+00	0.00E+00	0.00E+00
	5550000000	1.79E-01	-1.27E-01	2.50E-01	-6.96E-01	0.00E+00	0.00E+00	0.00E+00	0.00E+00
	5600000000	4.30E-02	-1.98E-01	4.11E-01	-5.59E-01	0.00E+00	0.00E+00	0.00E+00	0.00E+00
	5650000000	3.74E-02	-1.33E-01	5.62E-01	-4.06E-01	0.00E+00	0.00E+00	0.00E+00	0.00E+00
	5700000000	8.72E-02	-1.41E-01	6.71E-01	-2.69E-01	0.00E+00	0.00E+00	0.00E+00	0.00E+00
	5750000000	1.25E-01	-2.27E-01	7.21E-01	-1.08E-01	0.00E+00	0.00E+00	0.00E+00	0.00E+00
	5800000000	5.58E-02	-3.25E-01	7.40E-01	6.28E-02	0.00E+00	0.00E+00	0.00E+00	0.00E+00
	5850000000	-6.61E-02	-3.22E-01	7.07E-01	2.29E-01	0.00E+00	0.00E+00	0.00E+00	0.00E+00
	5900000000	-9.12E-02	-2.23E-01	6.60E-01	3.99E-01	0.00E+00	0.00E+00	0.00E+00	0.00E+00
	5950000000	-2.15E-02	-2.29E-01	5.98E-01	5.06E-01	0.00E+00	0.00E+00	0.00E+00	0.00E+00
	6000000000	-1.26E-01	-2.69E-01	7.53E-01	5.08E-02	0.00E+00	0.00E+00	0.00E+00	0.00E+00
