! NanoVNA-App									
! Date: 2024-03-20 20:02:14									
! Start: 1GHz Stop: 6GHz Points: 101									
! S-Parameter data: F S11 S21 S12 S22									
# Hz S RI R 50									
!	Frequency	S11_Real	S11_Imag	S21_Real	S21_Imag	S12_Real	S12_Imag	S22_Real	S22_Imag
	1000000000	1.24E-01	-2.43E-02	-5.52E-01	-8.80E-01	0.00E+00	0.00E+00	0.00E+00	0.00E+00
	1050000000	5.36E-02	-2.38E-02	-3.71E-01	-9.67E-01	0.00E+00	0.00E+00	0.00E+00	0.00E+00
	1100000000	5.06E-02	-1.08E-02	-1.63E-01	-1.02E+00	0.00E+00	0.00E+00	0.00E+00	0.00E+00
	1150000000	3.19E-02	-4.55E-02	4.26E-02	-1.03E+00	0.00E+00	0.00E+00	0.00E+00	0.00E+00
	1200000000	-4.78E-02	-3.60E-02	2.47E-01	-9.89E-01	0.00E+00	0.00E+00	0.00E+00	0.00E+00
	1250000000	-7.60E-02	6.68E-02	4.54E-01	-9.07E-01	0.00E+00	0.00E+00	0.00E+00	0.00E+00
	1300000000	1.70E-02	1.36E-01	6.33E-01	-7.99E-01	0.00E+00	0.00E+00	0.00E+00	0.00E+00
	1350000000	1.04E-01	6.64E-02	7.73E-01	-6.50E-01	0.00E+00	0.00E+00	0.00E+00	0.00E+00
	1400000000	7.67E-02	4.99E-03	9.02E-01	-4.78E-01	0.00E+00	0.00E+00	0.00E+00	0.00E+00
	1450000000	1.97E-02	2.07E-02	9.74E-01	-2.95E-01	0.00E+00	0.00E+00	0.00E+00	0.00E+00
	1500000000	5.21E-02	6.33E-02	1.00E+00	-9.72E-02	0.00E+00	0.00E+00	0.00E+00	0.00E+00
	1550000000	9.45E-02	7.33E-03	9.90E-01	1.05E-01	0.00E+00	0.00E+00	0.00E+00	0.00E+00
	1600000000	1.24E-02	-5.33E-02	9.41E-01	2.95E-01	0.00E+00	0.00E+00	0.00E+00	0.00E+00
	1650000000	-9.16E-02	4.28E-02	8.57E-01	4.65E-01	0.00E+00	0.00E+00	0.00E+00	0.00E+00
	1700000000	-1.98E-02	2.01E-01	7.26E-01	6.06E-01	0.00E+00	0.00E+00	0.00E+00	0.00E+00
	1750000000	1.67E-01	1.99E-01	5.69E-01	7.37E-01	0.00E+00	0.00E+00	0.00E+00	0.00E+00
	1800000000	2.43E-01	3.87E-02	4.17E-01	8.44E-01	0.00E+00	0.00E+00	0.00E+00	0.00E+00
	1850000000	1.54E-01	-7.89E-02	2.63E-01	8.98E-01	0.00E+00	0.00E+00	0.00E+00	0.00E+00
	1900000000	5.86E-02	-5.98E-02	1.18E-01	9.09E-01	0.00E+00	0.00E+00	0.00E+00	0.00E+00
	1950000000	4.50E-02	-1.92E-02	2.98E-03	8.89E-01	0.00E+00	0.00E+00	0.00E+00	0.00E+00
	2000000000	6.80E-02	-1.33E-02	-5.51E-02	8.08E-01	0.00E+00	0.00E+00	0.00E+00	0.00E+00
	2050000000	6.44E-02	-1.75E-01	-3.60E-02	5.73E-01	0.00E+00	0.00E+00	0.00E+00	0.00E+00
	2100000000	-3.88E-01	-4.51E-02	-2.63E-01	1.99E-01	0.00E+00	0.00E+00	0.00E+00	0.00E+00
	2150000000	-1.89E-01	4.68E-01	-4.86E-01	5.63E-02	0.00E+00	0.00E+00	0.00E+00	0.00E+00
	2200000000	2.70E-01	4.80E-01	-5.87E-01	-5.93E-02	0.00E+00	0.00E+00	0.00E+00	0.00E+00
	2250000000	5.15E-01	1.72E-01	-6.21E-01	-1.69E-01	0.00E+00	0.00E+00	0.00E+00	0.00E+00
	2300000000	4.57E-01	-1.72E-01	-5.93E-01	-2.77E-01	0.00E+00	0.00E+00	0.00E+00	0.00E+00
	2350000000	1.98E-01	-3.53E-01	-5.23E-01	-3.84E-01	0.00E+00	0.00E+00	0.00E+00	0.00E+00
	2400000000	-9.17E-02	-3.01E-01	-4.35E-01	-4.75E-01	0.00E+00	0.00E+00	0.00E+00	0.00E+00
	2450000000	-2.37E-01	-6.39E-02	-3.44E-01	-5.35E-01	0.00E+00	0.00E+00	0.00E+00	0.00E+00
	2500000000	-1.10E-01	1.42E-01	-2.76E-01	-5.04E-01	0.00E+00	0.00E+00	0.00E+00	0.00E+00
	2550000000	-1.39E-01	1.18E-01	-1.60E-02	-3.30E-01	0.00E+00	0.00E+00	0.00E+00	0.00E+00
	2600000000	3.68E-02	3.60E-01	2.51E-01	-3.88E-01	0.00E+00	0.00E+00	0.00E+00	0.00E+00
	2650000000	3.28E-01	2.58E-01	3.94E-01	-3.76E-01	0.00E+00	0.00E+00	0.00E+00	0.00E+00
	2700000000	3.98E-01	-1.50E-02	5.15E-01	-2.98E-01	0.00E+00	0.00E+00	0.00E+00	0.00E+00
	2750000000	2.46E-01	-2.10E-01	6.18E-01	-1.88E-01	0.00E+00	0.00E+00	0.00E+00	0.00E+00
	2800000000	4.12E-02	-2.08E-01	6.98E-01	-6.50E-02	0.00E+00	0.00E+00	0.00E+00	0.00E+00
	2850000000	-5.78E-02	-8.91E-02	7.44E-01	5.88E-02	0.00E+00	0.00E+00	0.00E+00	0.00E+00
	2900000000	-3.89E-02	2.89E-02	7.23E-01	1.85E-01	0.00E+00	0.00E+00	0.00E+00	0.00E+00
	2950000000	1.77E-02	6.93E-02	6.47E-01	3.61E-01	0.00E+00	0.00E+00	0.00E+00	0.00E+00
	3000000000	1.00E-01	1.21E-01	5.96E-01	5.11E-01	0.00E+00	0.00E+00	0.00E+00	0.00E+00
	3050000000	2.11E-01	6.31E-02	4.95E-01	6.28E-01	0.00E+00	0.00E+00	0.00E+00	0.00E+00
	3100000000	2.27E-01	-6.18E-02	3.58E-01	7.38E-01	0.00E+00	0.00E+00	0.00E+00	0.00E+00
	3150000000	1.37E-01	-1.39E-01	2.27E-01	8.23E-01	0.00E+00	0.00E+00	0.00E+00	0.00E+00
	3200000000	4.42E-02	-1.07E-01	8.61E-02	8.49E-01	0.00E+00	0.00E+00	0.00E+00	0.00E+00
	3250000000	2.85E-02	-3.27E-02	-7.64E-02	8.37E-01	0.00E+00	0.00E+00	0.00E+00	0.00E+00
	3300000000	6.25E-02	7.42E-03	-2.42E-01	8.03E-01	0.00E+00	0.00E+00	0.00E+00	0.00E+00
	3350000000	9.11E-02	1.34E-02	-3.85E-01	7.36E-01	0.00E+00	0.00E+00	0.00E+00	0.00E+00
	3400000000	9.55E-02	2.90E-02	-5.00E-01	6.51E-01	0.00E+00	0.00E+00	0.00E+00	0.00E+00
	3450000000	1.82E-01	9.27E-02	-5.25E-01	5.09E-01	0.00E+00	0.00E+00	0.00E+00	0.00E+00
	3500000000	2.74E-01	-7.44E-03	-5.86E-01	2.76E-01	0.00E+00	0.00E+00	0.00E+00	0.00E+00
	3550000000	2.65E-01	-1.54E-01	-6.58E-01	2.66E-02	0.00E+00	0.00E+00	0.00E+00	0.00E+00
	3600000000	1.44E-01	-1.95E-01	-7.30E-01	-1.46E-01	0.00E+00	0.00E+00	0.00E+00	0.00E+00
	3650000000	7.55E-02	-1.67E-01	-7.16E-01	-3.07E-01	0.00E+00	0.00E+00	0.00E+00	0.00E+00
	3700000000	2.43E-02	-1.32E-01	-6.60E-01	-4.79E-01	0.00E+00	0.00E+00	0.00E+00	0.00E+00
	3750000000	-1.29E-02	-6.17E-02	-5.86E-01	-6.31E-01	0.00E+00	0.00E+00	0.00E+00	0.00E+00
	3800000000	1.97E-02	2.28E-02	-4.79E-01	-7.29E-01	0.00E+00	0.00E+00	0.00E+00	0.00E+00
	3850000000	8.46E-02	3.74E-02	-3.09E-01	-8.05E-01	0.00E+00	0.00E+00	0.00E+00	0.00E+00
	3900000000	9.90E-02	3.26E-02	-1.30E-01	-8.64E-01	0.00E+00	0.00E+00	0.00E+00	0.00E+00
	3950000000	1.34E-01	8.38E-02	3.79E-02	-8.62E-01	0.00E+00	0.00E+00	0.00E+00	0.00E+00
	4000000000	2.71E-01	8.33E-02	2.41E-01	-8.11E-01	0.00E+00	0.00E+00	0.00E+00	0.00E+00
	4050000000	3.81E-01	-7.84E-02	4.44E-01	-7.61E-01	0.00E+00	0.00E+00	0.00E+00	0.00E+00
	4100000000	3.09E-01	-2.94E-01	5.92E-01	-6.82E-01	0.00E+00	0.00E+00	0.00E+00	0.00E+00
	4150000000	8.96E-02	-3.77E-01	7.20E-01	-5.33E-01	0.00E+00	0.00E+00	0.00E+00	0.00E+00
	4200000000	-9.11E-02	-2.74E-01	8.52E-01	-3.74E-01	0.00E+00	0.00E+00	0.00E+00	0.00E+00
	4250000000	-1.35E-01	-1.35E-01	9.14E-01	-2.27E-01	0.00E+00	0.00E+00	0.00E+00	0.00E+00
	4300000000	-1.50E-01	-3.09E-02	9.15E-01	-4.22E-02	0.00E+00	0.00E+00	0.00E+00	0.00E+00
	4350000000	-1.23E-01	1.42E-01	8.97E-01	1.42E-01	0.00E+00	0.00E+00	0.00E+00	0.00E+00
	4400000000	9.53E-02	2.84E-01	8.18E-01	3.05E-01	0.00E+00	0.00E+00	0.00E+00	0.00E+00
	4450000000	3.83E-01	1.75E-01	6.88E-01	4.81E-01	0.00E+00	0.00E+00	0.00E+00	0.00E+00
	4500000000	4.70E-01	-1.18E-01	5.48E-01	6.44E-01	0.00E+00	0.00E+00	0.00E+00	0.00E+00
	4550000000	3.13E-01	-3.45E-01	3.82E-01	7.47E-01	0.00E+00	0.00E+00	0.00E+00	0.00E+00
	4600000000	1.06E-01	-3.52E-01	1.76E-01	8.37E-01	0.00E+00	0.00E+00	0.00E+00	0.00E+00
	4650000000	3.38E-02	-3.01E-01	-2.21E-02	8.76E-01	0.00E+00	0.00E+00	0.00E+00	0.00E+00
	4700000000	-7.02E-02	-2.40E-01	-2.57E-01	8.84E-01	0.00E+00	0.00E+00	0.00E+00	0.00E+00
	4750000000	-1.12E-01	-1.62E-01	-4.40E-01	8.19E-01	0.00E+00	0.00E+00	0.00E+00	0.00E+00
	4800000000	-1.35E-01	3.54E-03	-7.01E-01	7.33E-01	0.00E+00	0.00E+00	0.00E+00	0.00E+00
	4850000000	5.35E-02	1.40E-01	-9.36E-01	7.07E-01	0.00E+00	0.00E+00	0.00E+00	0.00E+00
	4900000000	2.49E-01	1.15E-02	-1.05E+00	6.65E-01	0.00E+00	0.00E+00	0.00E+00	0.00E+00
	4950000000	1.96E-01	-1.85E-01	-1.05E+00	5.37E-01	0.00E+00	0.00E+00	0.00E+00	0.00E+00
	5000000000	1.97E-02	-1.63E-01	-1.07E+00	3.41E-01	0.00E+00	0.00E+00	0.00E+00	0.00E+00
	5050000000	4.81E-02	9.68E-03	-1.09E+00	5.25E-02	0.00E+00	0.00E+00	0.00E+00	0.00E+00
	5100000000	2.45E-01	-1.86E-02	-1.09E+00	-4.44E-02	0.00E+00	0.00E+00	0.00E+00	0.00E+00
	5150000000	2.69E-01	-2.41E-01	-9.93E-01	-2.19E-01	0.00E+00	0.00E+00	0.00E+00	0.00E+00
	5200000000	6.57E-02	-3.46E-01	-8.72E-01	-3.87E-01	0.00E+00	0.00E+00	0.00E+00	0.00E+00
	5250000000	-8.06E-02	-2.31E-01	-7.39E-01	-5.60E-01	0.00E+00	0.00E+00	0.00E+00	0.00E+00
	5300000000	-4.10E-02	-1.40E-01	-5.94E-01	-6.99E-01	0.00E+00	0.00E+00	0.00E+00	0.00E+00
	5350000000	-5.70E-02	-1.83E-01	-4.47E-01	-7.55E-01	0.00E+00	0.00E+00	0.00E+00	0.00E+00
	5400000000	-1.60E-01	-1.12E-01	-2.25E-01	-8.07E-01	0.00E+00	0.00E+00	0.00E+00	0.00E+00
	5450000000	-1.05E-01	7.56E-02	-4.96E-02	-8.51E-01	0.00E+00	0.00E+00	0.00E+00	0.00E+00
	5500000000	1.22E-01	7.10E-02	7.91E-02	-8.12E-01	0.00E+00	0.00E+00	0.00E+00	0.00E+00
	5550000000	1.84E-01	-1.30E-01	2.52E-01	-6.92E-01	0.00E+00	0.00E+00	0.00E+00	0.00E+00
	5600000000	3.64E-02	-2.08E-01	4.12E-01	-5.56E-01	0.00E+00	0.00E+00	0.00E+00	0.00E+00
	5650000000	2.60E-02	-1.27E-01	5.59E-01	-4.04E-01	0.00E+00	0.00E+00	0.00E+00	0.00E+00
	5700000000	8.44E-02	-1.38E-01	6.70E-01	-2.62E-01	0.00E+00	0.00E+00	0.00E+00	0.00E+00
	5750000000	1.22E-01	-2.26E-01	7.20E-01	-9.61E-02	0.00E+00	0.00E+00	0.00E+00	0.00E+00
	5800000000	5.49E-02	-3.21E-01	7.37E-01	7.12E-02	0.00E+00	0.00E+00	0.00E+00	0.00E+00
	5850000000	-6.76E-02	-3.19E-01	7.04E-01	2.33E-01	0.00E+00	0.00E+00	0.00E+00	0.00E+00
	5900000000	-9.32E-02	-2.24E-01	6.57E-01	4.06E-01	0.00E+00	0.00E+00	0.00E+00	0.00E+00
	5950000000	-2.54E-02	-2.30E-01	5.90E-01	5.20E-01	0.00E+00	0.00E+00	0.00E+00	0.00E+00
	6000000000	-1.32E-01	-2.66E-01	7.56E-01	5.94E-02	0.00E+00	0.00E+00	0.00E+00	0.00E+00
