! NanoVNA-App									
! Date: 2024-03-20 22:10:10									
! Start: 1GHz Stop: 6GHz Points: 101									
! S-Parameter data: F S11 S21 S12 S22									
# Hz S RI R 50									
!	Frequency	S11_Real	S11_Imag	S21_Real	S21_Imag	S12_Real	S12_Imag	S22_Real	S22_Imag
	1000000000	1.23E-01	-2.37E-02	-5.55E-01	-8.79E-01	0.00E+00	0.00E+00	0.00E+00	0.00E+00
	1050000000	5.28E-02	-2.31E-02	-3.74E-01	-9.65E-01	0.00E+00	0.00E+00	0.00E+00	0.00E+00
	1100000000	4.97E-02	-1.10E-02	-1.66E-01	-1.02E+00	0.00E+00	0.00E+00	0.00E+00	0.00E+00
	1150000000	3.08E-02	-4.62E-02	3.85E-02	-1.03E+00	0.00E+00	0.00E+00	0.00E+00	0.00E+00
	1200000000	-4.92E-02	-3.65E-02	2.45E-01	-9.89E-01	0.00E+00	0.00E+00	0.00E+00	0.00E+00
	1250000000	-7.71E-02	6.65E-02	4.49E-01	-9.10E-01	0.00E+00	0.00E+00	0.00E+00	0.00E+00
	1300000000	1.59E-02	1.35E-01	6.31E-01	-8.01E-01	0.00E+00	0.00E+00	0.00E+00	0.00E+00
	1350000000	1.02E-01	6.59E-02	7.72E-01	-6.53E-01	0.00E+00	0.00E+00	0.00E+00	0.00E+00
	1400000000	7.48E-02	4.96E-03	9.03E-01	-4.82E-01	0.00E+00	0.00E+00	0.00E+00	0.00E+00
	1450000000	1.85E-02	2.15E-02	9.73E-01	-2.99E-01	0.00E+00	0.00E+00	0.00E+00	0.00E+00
	1500000000	5.25E-02	6.35E-02	1.00E+00	-1.03E-01	0.00E+00	0.00E+00	0.00E+00	0.00E+00
	1550000000	9.53E-02	6.55E-03	9.91E-01	1.02E-01	0.00E+00	0.00E+00	0.00E+00	0.00E+00
	1600000000	1.29E-02	-5.55E-02	9.43E-01	2.93E-01	0.00E+00	0.00E+00	0.00E+00	0.00E+00
	1650000000	-9.22E-02	4.00E-02	8.56E-01	4.61E-01	0.00E+00	0.00E+00	0.00E+00	0.00E+00
	1700000000	-2.23E-02	1.98E-01	7.29E-01	6.05E-01	0.00E+00	0.00E+00	0.00E+00	0.00E+00
	1750000000	1.64E-01	1.97E-01	5.74E-01	7.36E-01	0.00E+00	0.00E+00	0.00E+00	0.00E+00
	1800000000	2.40E-01	3.95E-02	4.21E-01	8.45E-01	0.00E+00	0.00E+00	0.00E+00	0.00E+00
	1850000000	1.53E-01	-7.56E-02	2.67E-01	8.99E-01	0.00E+00	0.00E+00	0.00E+00	0.00E+00
	1900000000	6.11E-02	-5.73E-02	1.22E-01	9.13E-01	0.00E+00	0.00E+00	0.00E+00	0.00E+00
	1950000000	4.91E-02	-1.93E-02	6.09E-03	8.89E-01	0.00E+00	0.00E+00	0.00E+00	0.00E+00
	2000000000	7.41E-02	-1.71E-02	-4.98E-02	8.07E-01	0.00E+00	0.00E+00	0.00E+00	0.00E+00
	2050000000	6.10E-02	-1.89E-01	-3.61E-02	5.63E-01	0.00E+00	0.00E+00	0.00E+00	0.00E+00
	2100000000	-3.92E-01	-3.95E-02	-2.79E-01	1.98E-01	0.00E+00	0.00E+00	0.00E+00	0.00E+00
	2150000000	-1.90E-01	4.68E-01	-4.95E-01	6.27E-02	0.00E+00	0.00E+00	0.00E+00	0.00E+00
	2200000000	2.65E-01	4.81E-01	-5.95E-01	-5.41E-02	0.00E+00	0.00E+00	0.00E+00	0.00E+00
	2250000000	5.13E-01	1.77E-01	-6.31E-01	-1.64E-01	0.00E+00	0.00E+00	0.00E+00	0.00E+00
	2300000000	4.60E-01	-1.66E-01	-6.04E-01	-2.72E-01	0.00E+00	0.00E+00	0.00E+00	0.00E+00
	2350000000	2.06E-01	-3.48E-01	-5.33E-01	-3.80E-01	0.00E+00	0.00E+00	0.00E+00	0.00E+00
	2400000000	-8.25E-02	-3.09E-01	-4.47E-01	-4.73E-01	0.00E+00	0.00E+00	0.00E+00	0.00E+00
	2450000000	-2.38E-01	-7.67E-02	-3.59E-01	-5.34E-01	0.00E+00	0.00E+00	0.00E+00	0.00E+00
	2500000000	-1.22E-01	1.34E-01	-2.89E-01	-5.04E-01	0.00E+00	0.00E+00	0.00E+00	0.00E+00
	2550000000	-1.53E-01	1.32E-01	-2.71E-02	-3.42E-01	0.00E+00	0.00E+00	0.00E+00	0.00E+00
	2600000000	4.22E-02	3.68E-01	2.25E-01	-3.98E-01	0.00E+00	0.00E+00	0.00E+00	0.00E+00
	2650000000	3.32E-01	2.59E-01	3.66E-01	-3.78E-01	0.00E+00	0.00E+00	0.00E+00	0.00E+00
	2700000000	4.03E-01	-1.37E-02	4.94E-01	-2.98E-01	0.00E+00	0.00E+00	0.00E+00	0.00E+00
	2750000000	2.52E-01	-2.13E-01	6.01E-01	-1.90E-01	0.00E+00	0.00E+00	0.00E+00	0.00E+00
	2800000000	4.66E-02	-2.19E-01	6.86E-01	-6.26E-02	0.00E+00	0.00E+00	0.00E+00	0.00E+00
	2850000000	-6.40E-02	-9.49E-02	7.32E-01	5.44E-02	0.00E+00	0.00E+00	0.00E+00	0.00E+00
	2900000000	-4.62E-02	3.02E-02	7.14E-01	1.79E-01	0.00E+00	0.00E+00	0.00E+00	0.00E+00
	2950000000	1.39E-02	7.51E-02	6.39E-01	3.53E-01	0.00E+00	0.00E+00	0.00E+00	0.00E+00
	3000000000	1.02E-01	1.26E-01	5.94E-01	5.07E-01	0.00E+00	0.00E+00	0.00E+00	0.00E+00
	3050000000	2.15E-01	6.57E-02	4.96E-01	6.23E-01	0.00E+00	0.00E+00	0.00E+00	0.00E+00
	3100000000	2.31E-01	-6.39E-02	3.64E-01	7.32E-01	0.00E+00	0.00E+00	0.00E+00	0.00E+00
	3150000000	1.39E-01	-1.42E-01	2.33E-01	8.17E-01	0.00E+00	0.00E+00	0.00E+00	0.00E+00
	3200000000	4.37E-02	-1.10E-01	9.49E-02	8.44E-01	0.00E+00	0.00E+00	0.00E+00	0.00E+00
	3250000000	2.62E-02	-3.39E-02	-6.78E-02	8.32E-01	0.00E+00	0.00E+00	0.00E+00	0.00E+00
	3300000000	6.03E-02	8.10E-03	-2.27E-01	7.98E-01	0.00E+00	0.00E+00	0.00E+00	0.00E+00
	3350000000	9.08E-02	1.48E-02	-3.76E-01	7.33E-01	0.00E+00	0.00E+00	0.00E+00	0.00E+00
	3400000000	9.44E-02	2.93E-02	-4.88E-01	6.52E-01	0.00E+00	0.00E+00	0.00E+00	0.00E+00
	3450000000	1.84E-01	9.53E-02	-5.12E-01	5.08E-01	0.00E+00	0.00E+00	0.00E+00	0.00E+00
	3500000000	2.76E-01	-7.13E-03	-5.78E-01	2.76E-01	0.00E+00	0.00E+00	0.00E+00	0.00E+00
	3550000000	2.67E-01	-1.53E-01	-6.52E-01	3.06E-02	0.00E+00	0.00E+00	0.00E+00	0.00E+00
	3600000000	1.47E-01	-1.95E-01	-7.23E-01	-1.40E-01	0.00E+00	0.00E+00	0.00E+00	0.00E+00
	3650000000	7.70E-02	-1.68E-01	-7.13E-01	-3.02E-01	0.00E+00	0.00E+00	0.00E+00	0.00E+00
	3700000000	2.46E-02	-1.34E-01	-6.58E-01	-4.74E-01	0.00E+00	0.00E+00	0.00E+00	0.00E+00
	3750000000	-1.27E-02	-6.23E-02	-5.87E-01	-6.24E-01	0.00E+00	0.00E+00	0.00E+00	0.00E+00
	3800000000	1.73E-02	2.18E-02	-4.78E-01	-7.24E-01	0.00E+00	0.00E+00	0.00E+00	0.00E+00
	3850000000	8.28E-02	3.96E-02	-3.13E-01	-8.00E-01	0.00E+00	0.00E+00	0.00E+00	0.00E+00
	3900000000	9.82E-02	3.58E-02	-1.35E-01	-8.60E-01	0.00E+00	0.00E+00	0.00E+00	0.00E+00
	3950000000	1.37E-01	8.64E-02	3.06E-02	-8.59E-01	0.00E+00	0.00E+00	0.00E+00	0.00E+00
	4000000000	2.74E-01	8.33E-02	2.38E-01	-8.09E-01	0.00E+00	0.00E+00	0.00E+00	0.00E+00
	4050000000	3.81E-01	-7.93E-02	4.42E-01	-7.59E-01	0.00E+00	0.00E+00	0.00E+00	0.00E+00
	4100000000	3.07E-01	-2.95E-01	5.86E-01	-6.85E-01	0.00E+00	0.00E+00	0.00E+00	0.00E+00
	4150000000	8.93E-02	-3.77E-01	7.17E-01	-5.36E-01	0.00E+00	0.00E+00	0.00E+00	0.00E+00
	4200000000	-9.18E-02	-2.73E-01	8.47E-01	-3.82E-01	0.00E+00	0.00E+00	0.00E+00	0.00E+00
	4250000000	-1.35E-01	-1.36E-01	9.11E-01	-2.36E-01	0.00E+00	0.00E+00	0.00E+00	0.00E+00
	4300000000	-1.51E-01	-3.27E-02	9.11E-01	-5.05E-02	0.00E+00	0.00E+00	0.00E+00	0.00E+00
	4350000000	-1.24E-01	1.40E-01	8.95E-01	1.32E-01	0.00E+00	0.00E+00	0.00E+00	0.00E+00
	4400000000	9.25E-02	2.83E-01	8.18E-01	3.01E-01	0.00E+00	0.00E+00	0.00E+00	0.00E+00
	4450000000	3.81E-01	1.74E-01	6.89E-01	4.73E-01	0.00E+00	0.00E+00	0.00E+00	0.00E+00
	4500000000	4.69E-01	-1.18E-01	5.55E-01	6.35E-01	0.00E+00	0.00E+00	0.00E+00	0.00E+00
	4550000000	3.14E-01	-3.44E-01	3.86E-01	7.40E-01	0.00E+00	0.00E+00	0.00E+00	0.00E+00
	4600000000	1.09E-01	-3.52E-01	1.82E-01	8.29E-01	0.00E+00	0.00E+00	0.00E+00	0.00E+00
	4650000000	3.45E-02	-3.06E-01	-1.75E-02	8.70E-01	0.00E+00	0.00E+00	0.00E+00	0.00E+00
	4700000000	-6.97E-02	-2.41E-01	-2.46E-01	8.83E-01	0.00E+00	0.00E+00	0.00E+00	0.00E+00
	4750000000	-1.12E-01	-1.65E-01	-4.29E-01	8.19E-01	0.00E+00	0.00E+00	0.00E+00	0.00E+00
	4800000000	-1.34E-01	2.34E-03	-6.91E-01	7.34E-01	0.00E+00	0.00E+00	0.00E+00	0.00E+00
	4850000000	5.52E-02	1.38E-01	-9.25E-01	7.10E-01	0.00E+00	0.00E+00	0.00E+00	0.00E+00
	4900000000	2.51E-01	9.09E-03	-1.03E+00	6.69E-01	0.00E+00	0.00E+00	0.00E+00	0.00E+00
	4950000000	1.96E-01	-1.88E-01	-1.04E+00	5.41E-01	0.00E+00	0.00E+00	0.00E+00	0.00E+00
	5000000000	2.06E-02	-1.64E-01	-1.06E+00	3.49E-01	0.00E+00	0.00E+00	0.00E+00	0.00E+00
	5050000000	4.97E-02	7.92E-03	-1.08E+00	6.02E-02	0.00E+00	0.00E+00	0.00E+00	0.00E+00
	5100000000	2.47E-01	-2.00E-02	-1.08E+00	-3.71E-02	0.00E+00	0.00E+00	0.00E+00	0.00E+00
	5150000000	2.69E-01	-2.41E-01	-9.92E-01	-2.05E-01	0.00E+00	0.00E+00	0.00E+00	0.00E+00
	5200000000	6.72E-02	-3.45E-01	-8.72E-01	-3.76E-01	0.00E+00	0.00E+00	0.00E+00	0.00E+00
	5250000000	-7.67E-02	-2.30E-01	-7.41E-01	-5.49E-01	0.00E+00	0.00E+00	0.00E+00	0.00E+00
	5300000000	-3.84E-02	-1.41E-01	-6.01E-01	-6.85E-01	0.00E+00	0.00E+00	0.00E+00	0.00E+00
	5350000000	-5.35E-02	-1.84E-01	-4.50E-01	-7.45E-01	0.00E+00	0.00E+00	0.00E+00	0.00E+00
	5400000000	-1.59E-01	-1.12E-01	-2.37E-01	-7.99E-01	0.00E+00	0.00E+00	0.00E+00	0.00E+00
	5450000000	-1.01E-01	7.16E-02	-5.88E-02	-8.45E-01	0.00E+00	0.00E+00	0.00E+00	0.00E+00
	5500000000	1.21E-01	6.60E-02	7.51E-02	-8.07E-01	0.00E+00	0.00E+00	0.00E+00	0.00E+00
	5550000000	1.82E-01	-1.27E-01	2.46E-01	-6.89E-01	0.00E+00	0.00E+00	0.00E+00	0.00E+00
	5600000000	4.20E-02	-2.00E-01	4.02E-01	-5.59E-01	0.00E+00	0.00E+00	0.00E+00	0.00E+00
	5650000000	3.67E-02	-1.33E-01	5.55E-01	-4.08E-01	0.00E+00	0.00E+00	0.00E+00	0.00E+00
	5700000000	8.52E-02	-1.42E-01	6.65E-01	-2.69E-01	0.00E+00	0.00E+00	0.00E+00	0.00E+00
	5750000000	1.20E-01	-2.28E-01	7.14E-01	-1.12E-01	0.00E+00	0.00E+00	0.00E+00	0.00E+00
	5800000000	5.78E-02	-3.22E-01	7.36E-01	5.94E-02	0.00E+00	0.00E+00	0.00E+00	0.00E+00
	5850000000	-6.32E-02	-3.19E-01	7.04E-01	2.23E-01	0.00E+00	0.00E+00	0.00E+00	0.00E+00
	5900000000	-8.75E-02	-2.23E-01	6.59E-01	3.91E-01	0.00E+00	0.00E+00	0.00E+00	0.00E+00
	5950000000	-1.77E-02	-2.33E-01	5.94E-01	5.02E-01	0.00E+00	0.00E+00	0.00E+00	0.00E+00
	6000000000	-1.24E-01	-2.73E-01	7.47E-01	4.85E-02	0.00E+00	0.00E+00	0.00E+00	0.00E+00
