! NanoVNA-App									
! Date: 2024-03-20 20:33:55									
! Start: 1GHz Stop: 6GHz Points: 101									
! S-Parameter data: F S11 S21 S12 S22									
# Hz S RI R 50									
!	Frequency	S11_Real	S11_Imag	S21_Real	S21_Imag	S12_Real	S12_Imag	S22_Real	S22_Imag
	1000000000	1.24E-01	-2.38E-02	-5.53E-01	-8.80E-01	0.00E+00	0.00E+00	0.00E+00	0.00E+00
	1050000000	5.34E-02	-2.36E-02	-3.72E-01	-9.67E-01	0.00E+00	0.00E+00	0.00E+00	0.00E+00
	1100000000	5.03E-02	-1.08E-02	-1.64E-01	-1.02E+00	0.00E+00	0.00E+00	0.00E+00	0.00E+00
	1150000000	3.15E-02	-4.56E-02	4.12E-02	-1.03E+00	0.00E+00	0.00E+00	0.00E+00	0.00E+00
	1200000000	-4.81E-02	-3.62E-02	2.47E-01	-9.89E-01	0.00E+00	0.00E+00	0.00E+00	0.00E+00
	1250000000	-7.63E-02	6.65E-02	4.52E-01	-9.09E-01	0.00E+00	0.00E+00	0.00E+00	0.00E+00
	1300000000	1.64E-02	1.36E-01	6.33E-01	-7.99E-01	0.00E+00	0.00E+00	0.00E+00	0.00E+00
	1350000000	1.03E-01	6.64E-02	7.74E-01	-6.50E-01	0.00E+00	0.00E+00	0.00E+00	0.00E+00
	1400000000	7.62E-02	5.02E-03	9.05E-01	-4.80E-01	0.00E+00	0.00E+00	0.00E+00	0.00E+00
	1450000000	1.95E-02	2.09E-02	9.74E-01	-2.97E-01	0.00E+00	0.00E+00	0.00E+00	0.00E+00
	1500000000	5.24E-02	6.31E-02	1.00E+00	-1.00E-01	0.00E+00	0.00E+00	0.00E+00	0.00E+00
	1550000000	9.49E-02	7.07E-03	9.90E-01	1.04E-01	0.00E+00	0.00E+00	0.00E+00	0.00E+00
	1600000000	1.27E-02	-5.40E-02	9.44E-01	2.97E-01	0.00E+00	0.00E+00	0.00E+00	0.00E+00
	1650000000	-9.16E-02	4.16E-02	8.55E-01	4.64E-01	0.00E+00	0.00E+00	0.00E+00	0.00E+00
	1700000000	-2.09E-02	2.00E-01	7.27E-01	6.06E-01	0.00E+00	0.00E+00	0.00E+00	0.00E+00
	1750000000	1.66E-01	1.98E-01	5.70E-01	7.37E-01	0.00E+00	0.00E+00	0.00E+00	0.00E+00
	1800000000	2.41E-01	3.94E-02	4.18E-01	8.45E-01	0.00E+00	0.00E+00	0.00E+00	0.00E+00
	1850000000	1.53E-01	-7.74E-02	2.65E-01	8.99E-01	0.00E+00	0.00E+00	0.00E+00	0.00E+00
	1900000000	5.96E-02	-5.85E-02	1.20E-01	9.13E-01	0.00E+00	0.00E+00	0.00E+00	0.00E+00
	1950000000	4.72E-02	-1.86E-02	3.42E-03	8.87E-01	0.00E+00	0.00E+00	0.00E+00	0.00E+00
	2000000000	7.26E-02	-1.52E-02	-5.21E-02	8.05E-01	0.00E+00	0.00E+00	0.00E+00	0.00E+00
	2050000000	6.17E-02	-1.84E-01	-4.07E-02	5.60E-01	0.00E+00	0.00E+00	0.00E+00	0.00E+00
	2100000000	-3.89E-01	-3.58E-02	-2.77E-01	1.97E-01	0.00E+00	0.00E+00	0.00E+00	0.00E+00
	2150000000	-1.86E-01	4.68E-01	-4.93E-01	6.06E-02	0.00E+00	0.00E+00	0.00E+00	0.00E+00
	2200000000	2.69E-01	4.80E-01	-5.93E-01	-5.68E-02	0.00E+00	0.00E+00	0.00E+00	0.00E+00
	2250000000	5.14E-01	1.73E-01	-6.27E-01	-1.67E-01	0.00E+00	0.00E+00	0.00E+00	0.00E+00
	2300000000	4.57E-01	-1.70E-01	-5.98E-01	-2.75E-01	0.00E+00	0.00E+00	0.00E+00	0.00E+00
	2350000000	2.00E-01	-3.49E-01	-5.26E-01	-3.83E-01	0.00E+00	0.00E+00	0.00E+00	0.00E+00
	2400000000	-8.75E-02	-3.04E-01	-4.40E-01	-4.74E-01	0.00E+00	0.00E+00	0.00E+00	0.00E+00
	2450000000	-2.36E-01	-6.86E-02	-3.50E-01	-5.35E-01	0.00E+00	0.00E+00	0.00E+00	0.00E+00
	2500000000	-1.14E-01	1.37E-01	-2.81E-01	-5.04E-01	0.00E+00	0.00E+00	0.00E+00	0.00E+00
	2550000000	-1.45E-01	1.29E-01	-2.05E-02	-3.39E-01	0.00E+00	0.00E+00	0.00E+00	0.00E+00
	2600000000	4.29E-02	3.61E-01	2.35E-01	-3.94E-01	0.00E+00	0.00E+00	0.00E+00	0.00E+00
	2650000000	3.28E-01	2.55E-01	3.80E-01	-3.74E-01	0.00E+00	0.00E+00	0.00E+00	0.00E+00
	2700000000	3.97E-01	-1.38E-02	5.03E-01	-2.94E-01	0.00E+00	0.00E+00	0.00E+00	0.00E+00
	2750000000	2.48E-01	-2.09E-01	6.09E-01	-1.85E-01	0.00E+00	0.00E+00	0.00E+00	0.00E+00
	2800000000	4.12E-02	-2.09E-01	6.90E-01	-6.35E-02	0.00E+00	0.00E+00	0.00E+00	0.00E+00
	2850000000	-5.82E-02	-9.07E-02	7.38E-01	6.07E-02	0.00E+00	0.00E+00	0.00E+00	0.00E+00
	2900000000	-3.93E-02	2.87E-02	7.18E-01	1.86E-01	0.00E+00	0.00E+00	0.00E+00	0.00E+00
	2950000000	1.55E-02	6.96E-02	6.39E-01	3.57E-01	0.00E+00	0.00E+00	0.00E+00	0.00E+00
	3000000000	9.98E-02	1.21E-01	5.96E-01	5.13E-01	0.00E+00	0.00E+00	0.00E+00	0.00E+00
	3050000000	2.11E-01	6.44E-02	4.96E-01	6.29E-01	0.00E+00	0.00E+00	0.00E+00	0.00E+00
	3100000000	2.28E-01	-6.14E-02	3.60E-01	7.38E-01	0.00E+00	0.00E+00	0.00E+00	0.00E+00
	3150000000	1.38E-01	-1.39E-01	2.29E-01	8.23E-01	0.00E+00	0.00E+00	0.00E+00	0.00E+00
	3200000000	4.43E-02	-1.07E-01	8.86E-02	8.48E-01	0.00E+00	0.00E+00	0.00E+00	0.00E+00
	3250000000	2.88E-02	-3.26E-02	-7.56E-02	8.36E-01	0.00E+00	0.00E+00	0.00E+00	0.00E+00
	3300000000	6.27E-02	6.72E-03	-2.35E-01	8.02E-01	0.00E+00	0.00E+00	0.00E+00	0.00E+00
	3350000000	9.09E-02	1.25E-02	-3.82E-01	7.36E-01	0.00E+00	0.00E+00	0.00E+00	0.00E+00
	3400000000	9.42E-02	2.84E-02	-4.96E-01	6.51E-01	0.00E+00	0.00E+00	0.00E+00	0.00E+00
	3450000000	1.83E-01	9.43E-02	-5.19E-01	5.07E-01	0.00E+00	0.00E+00	0.00E+00	0.00E+00
	3500000000	2.74E-01	-8.38E-03	-5.84E-01	2.74E-01	0.00E+00	0.00E+00	0.00E+00	0.00E+00
	3550000000	2.63E-01	-1.54E-01	-6.58E-01	2.53E-02	0.00E+00	0.00E+00	0.00E+00	0.00E+00
	3600000000	1.44E-01	-1.93E-01	-7.30E-01	-1.46E-01	0.00E+00	0.00E+00	0.00E+00	0.00E+00
	3650000000	7.77E-02	-1.65E-01	-7.18E-01	-3.05E-01	0.00E+00	0.00E+00	0.00E+00	0.00E+00
	3700000000	2.72E-02	-1.33E-01	-6.63E-01	-4.77E-01	0.00E+00	0.00E+00	0.00E+00	0.00E+00
	3750000000	-1.10E-02	-6.40E-02	-5.90E-01	-6.29E-01	0.00E+00	0.00E+00	0.00E+00	0.00E+00
	3800000000	1.81E-02	2.05E-02	-4.79E-01	-7.30E-01	0.00E+00	0.00E+00	0.00E+00	0.00E+00
	3850000000	8.19E-02	3.69E-02	-3.11E-01	-8.05E-01	0.00E+00	0.00E+00	0.00E+00	0.00E+00
	3900000000	9.73E-02	3.50E-02	-1.35E-01	-8.65E-01	0.00E+00	0.00E+00	0.00E+00	0.00E+00
	3950000000	1.34E-01	8.67E-02	3.22E-02	-8.61E-01	0.00E+00	0.00E+00	0.00E+00	0.00E+00
	4000000000	2.73E-01	8.54E-02	2.39E-01	-8.12E-01	0.00E+00	0.00E+00	0.00E+00	0.00E+00
	4050000000	3.82E-01	-7.76E-02	4.46E-01	-7.59E-01	0.00E+00	0.00E+00	0.00E+00	0.00E+00
	4100000000	3.10E-01	-2.94E-01	5.90E-01	-6.82E-01	0.00E+00	0.00E+00	0.00E+00	0.00E+00
	4150000000	8.99E-02	-3.78E-01	7.18E-01	-5.34E-01	0.00E+00	0.00E+00	0.00E+00	0.00E+00
	4200000000	-9.12E-02	-2.75E-01	8.51E-01	-3.76E-01	0.00E+00	0.00E+00	0.00E+00	0.00E+00
	4250000000	-1.36E-01	-1.36E-01	9.12E-01	-2.30E-01	0.00E+00	0.00E+00	0.00E+00	0.00E+00
	4300000000	-1.52E-01	-3.12E-02	9.14E-01	-4.65E-02	0.00E+00	0.00E+00	0.00E+00	0.00E+00
	4350000000	-1.24E-01	1.41E-01	8.96E-01	1.39E-01	0.00E+00	0.00E+00	0.00E+00	0.00E+00
	4400000000	9.46E-02	2.84E-01	8.18E-01	3.04E-01	0.00E+00	0.00E+00	0.00E+00	0.00E+00
	4450000000	3.82E-01	1.76E-01	6.89E-01	4.78E-01	0.00E+00	0.00E+00	0.00E+00	0.00E+00
	4500000000	4.71E-01	-1.18E-01	5.49E-01	6.42E-01	0.00E+00	0.00E+00	0.00E+00	0.00E+00
	4550000000	3.16E-01	-3.45E-01	3.82E-01	7.44E-01	0.00E+00	0.00E+00	0.00E+00	0.00E+00
	4600000000	1.07E-01	-3.55E-01	1.77E-01	8.34E-01	0.00E+00	0.00E+00	0.00E+00	0.00E+00
	4650000000	3.16E-02	-3.03E-01	-2.42E-02	8.75E-01	0.00E+00	0.00E+00	0.00E+00	0.00E+00
	4700000000	-7.17E-02	-2.39E-01	-2.55E-01	8.84E-01	0.00E+00	0.00E+00	0.00E+00	0.00E+00
	4750000000	-1.12E-01	-1.63E-01	-4.37E-01	8.19E-01	0.00E+00	0.00E+00	0.00E+00	0.00E+00
	4800000000	-1.35E-01	5.54E-03	-6.97E-01	7.33E-01	0.00E+00	0.00E+00	0.00E+00	0.00E+00
	4850000000	5.46E-02	1.41E-01	-9.34E-01	7.10E-01	0.00E+00	0.00E+00	0.00E+00	0.00E+00
	4900000000	2.52E-01	1.16E-02	-1.04E+00	6.68E-01	0.00E+00	0.00E+00	0.00E+00	0.00E+00
	4950000000	1.98E-01	-1.87E-01	-1.05E+00	5.38E-01	0.00E+00	0.00E+00	0.00E+00	0.00E+00
	5000000000	2.01E-02	-1.66E-01	-1.07E+00	3.44E-01	0.00E+00	0.00E+00	0.00E+00	0.00E+00
	5050000000	4.63E-02	8.75E-03	-1.09E+00	5.71E-02	0.00E+00	0.00E+00	0.00E+00	0.00E+00
	5100000000	2.45E-01	-1.83E-02	-1.09E+00	-4.13E-02	0.00E+00	0.00E+00	0.00E+00	0.00E+00
	5150000000	2.68E-01	-2.40E-01	-9.95E-01	-2.12E-01	0.00E+00	0.00E+00	0.00E+00	0.00E+00
	5200000000	6.95E-02	-3.46E-01	-8.72E-01	-3.86E-01	0.00E+00	0.00E+00	0.00E+00	0.00E+00
	5250000000	-7.96E-02	-2.30E-01	-7.42E-01	-5.56E-01	0.00E+00	0.00E+00	0.00E+00	0.00E+00
	5300000000	-3.83E-02	-1.41E-01	-5.94E-01	-6.98E-01	0.00E+00	0.00E+00	0.00E+00	0.00E+00
	5350000000	-5.46E-02	-1.83E-01	-4.47E-01	-7.52E-01	0.00E+00	0.00E+00	0.00E+00	0.00E+00
	5400000000	-1.60E-01	-1.12E-01	-2.30E-01	-8.04E-01	0.00E+00	0.00E+00	0.00E+00	0.00E+00
	5450000000	-1.04E-01	7.23E-02	-5.36E-02	-8.50E-01	0.00E+00	0.00E+00	0.00E+00	0.00E+00
	5500000000	1.19E-01	6.83E-02	7.89E-02	-8.11E-01	0.00E+00	0.00E+00	0.00E+00	0.00E+00
	5550000000	1.82E-01	-1.26E-01	2.54E-01	-6.92E-01	0.00E+00	0.00E+00	0.00E+00	0.00E+00
	5600000000	4.20E-02	-2.00E-01	4.08E-01	-5.58E-01	0.00E+00	0.00E+00	0.00E+00	0.00E+00
	5650000000	3.31E-02	-1.32E-01	5.57E-01	-4.08E-01	0.00E+00	0.00E+00	0.00E+00	0.00E+00
	5700000000	8.29E-02	-1.41E-01	6.70E-01	-2.64E-01	0.00E+00	0.00E+00	0.00E+00	0.00E+00
	5750000000	1.20E-01	-2.27E-01	7.19E-01	-1.05E-01	0.00E+00	0.00E+00	0.00E+00	0.00E+00
	5800000000	5.47E-02	-3.22E-01	7.38E-01	6.38E-02	0.00E+00	0.00E+00	0.00E+00	0.00E+00
	5850000000	-6.72E-02	-3.18E-01	7.05E-01	2.29E-01	0.00E+00	0.00E+00	0.00E+00	0.00E+00
	5900000000	-9.09E-02	-2.22E-01	6.58E-01	3.99E-01	0.00E+00	0.00E+00	0.00E+00	0.00E+00
	5950000000	-2.11E-02	-2.30E-01	5.92E-01	5.10E-01	0.00E+00	0.00E+00	0.00E+00	0.00E+00
	6000000000	-1.29E-01	-2.69E-01	7.51E-01	4.71E-02	0.00E+00	0.00E+00	0.00E+00	0.00E+00
