! NanoVNA-App									
! Date: 2024-03-20 21:09:40									
! Start: 1GHz Stop: 6GHz Points: 101									
! S-Parameter data: F S11 S21 S12 S22									
# Hz S RI R 50									
!	Frequency	S11_Real	S11_Imag	S21_Real	S21_Imag	S12_Real	S12_Imag	S22_Real	S22_Imag
	1000000000	1.23E-01	-2.43E-02	-5.55E-01	-8.79E-01	0.00E+00	0.00E+00	0.00E+00	0.00E+00
	1050000000	5.27E-02	-2.34E-02	-3.72E-01	-9.65E-01	0.00E+00	0.00E+00	0.00E+00	0.00E+00
	1100000000	4.94E-02	-1.10E-02	-1.65E-01	-1.02E+00	0.00E+00	0.00E+00	0.00E+00	0.00E+00
	1150000000	3.01E-02	-4.56E-02	3.77E-02	-1.03E+00	0.00E+00	0.00E+00	0.00E+00	0.00E+00
	1200000000	-4.92E-02	-3.51E-02	2.46E-01	-9.88E-01	0.00E+00	0.00E+00	0.00E+00	0.00E+00
	1250000000	-7.62E-02	6.81E-02	4.49E-01	-9.08E-01	0.00E+00	0.00E+00	0.00E+00	0.00E+00
	1300000000	1.79E-02	1.36E-01	6.30E-01	-8.00E-01	0.00E+00	0.00E+00	0.00E+00	0.00E+00
	1350000000	1.04E-01	6.42E-02	7.70E-01	-6.51E-01	0.00E+00	0.00E+00	0.00E+00	0.00E+00
	1400000000	7.61E-02	4.02E-03	8.99E-01	-4.81E-01	0.00E+00	0.00E+00	0.00E+00	0.00E+00
	1450000000	1.93E-02	1.94E-02	9.73E-01	-3.00E-01	0.00E+00	0.00E+00	0.00E+00	0.00E+00
	1500000000	5.08E-02	6.12E-02	1.00E+00	-1.01E-01	0.00E+00	0.00E+00	0.00E+00	0.00E+00
	1550000000	9.13E-02	5.94E-03	9.88E-01	9.93E-02	0.00E+00	0.00E+00	0.00E+00	0.00E+00
	1600000000	8.95E-03	-5.18E-02	9.39E-01	2.91E-01	0.00E+00	0.00E+00	0.00E+00	0.00E+00
	1650000000	-9.19E-02	4.63E-02	8.53E-01	4.58E-01	0.00E+00	0.00E+00	0.00E+00	0.00E+00
	1700000000	-1.71E-02	2.02E-01	7.24E-01	6.00E-01	0.00E+00	0.00E+00	0.00E+00	0.00E+00
	1750000000	1.70E-01	1.96E-01	5.69E-01	7.30E-01	0.00E+00	0.00E+00	0.00E+00	0.00E+00
	1800000000	2.44E-01	3.44E-02	4.17E-01	8.38E-01	0.00E+00	0.00E+00	0.00E+00	0.00E+00
	1850000000	1.52E-01	-8.29E-02	2.65E-01	8.92E-01	0.00E+00	0.00E+00	0.00E+00	0.00E+00
	1900000000	5.49E-02	-6.26E-02	1.21E-01	9.04E-01	0.00E+00	0.00E+00	0.00E+00	0.00E+00
	1950000000	4.07E-02	-1.79E-02	7.73E-03	8.81E-01	0.00E+00	0.00E+00	0.00E+00	0.00E+00
	2000000000	6.97E-02	-1.04E-02	-4.85E-02	7.96E-01	0.00E+00	0.00E+00	0.00E+00	0.00E+00
	2050000000	6.01E-02	-1.83E-01	-3.49E-02	5.47E-01	0.00E+00	0.00E+00	0.00E+00	0.00E+00
	2100000000	-3.86E-01	-2.39E-02	-2.77E-01	1.87E-01	0.00E+00	0.00E+00	0.00E+00	0.00E+00
	2150000000	-1.73E-01	4.69E-01	-4.89E-01	5.46E-02	0.00E+00	0.00E+00	0.00E+00	0.00E+00
	2200000000	2.78E-01	4.70E-01	-5.85E-01	-6.05E-02	0.00E+00	0.00E+00	0.00E+00	0.00E+00
	2250000000	5.13E-01	1.60E-01	-6.16E-01	-1.71E-01	0.00E+00	0.00E+00	0.00E+00	0.00E+00
	2300000000	4.47E-01	-1.80E-01	-5.85E-01	-2.79E-01	0.00E+00	0.00E+00	0.00E+00	0.00E+00
	2350000000	1.83E-01	-3.51E-01	-5.13E-01	-3.85E-01	0.00E+00	0.00E+00	0.00E+00	0.00E+00
	2400000000	-9.91E-02	-2.87E-01	-4.23E-01	-4.78E-01	0.00E+00	0.00E+00	0.00E+00	0.00E+00
	2450000000	-2.27E-01	-4.65E-02	-3.33E-01	-5.36E-01	0.00E+00	0.00E+00	0.00E+00	0.00E+00
	2500000000	-9.14E-02	1.38E-01	-2.60E-01	-5.04E-01	0.00E+00	0.00E+00	0.00E+00	0.00E+00
	2550000000	-1.31E-01	1.17E-01	7.12E-03	-3.46E-01	0.00E+00	0.00E+00	0.00E+00	0.00E+00
	2600000000	4.48E-02	3.41E-01	2.58E-01	-4.02E-01	0.00E+00	0.00E+00	0.00E+00	0.00E+00
	2650000000	3.13E-01	2.42E-01	4.01E-01	-3.79E-01	0.00E+00	0.00E+00	0.00E+00	0.00E+00
	2700000000	3.78E-01	-1.27E-02	5.24E-01	-2.97E-01	0.00E+00	0.00E+00	0.00E+00	0.00E+00
	2750000000	2.37E-01	-1.94E-01	6.28E-01	-1.85E-01	0.00E+00	0.00E+00	0.00E+00	0.00E+00
	2800000000	4.97E-02	-1.92E-01	7.09E-01	-5.74E-02	0.00E+00	0.00E+00	0.00E+00	0.00E+00
	2850000000	-4.12E-02	-8.37E-02	7.55E-01	6.40E-02	0.00E+00	0.00E+00	0.00E+00	0.00E+00
	2900000000	-2.41E-02	1.94E-02	7.33E-01	1.92E-01	0.00E+00	0.00E+00	0.00E+00	0.00E+00
	2950000000	1.68E-02	5.40E-02	6.54E-01	3.64E-01	0.00E+00	0.00E+00	0.00E+00	0.00E+00
	3000000000	9.08E-02	1.12E-01	6.12E-01	5.24E-01	0.00E+00	0.00E+00	0.00E+00	0.00E+00
	3050000000	2.00E-01	6.47E-02	5.10E-01	6.36E-01	0.00E+00	0.00E+00	0.00E+00	0.00E+00
	3100000000	2.21E-01	-5.53E-02	3.71E-01	7.45E-01	0.00E+00	0.00E+00	0.00E+00	0.00E+00
	3150000000	1.38E-01	-1.31E-01	2.40E-01	8.30E-01	0.00E+00	0.00E+00	0.00E+00	0.00E+00
	3200000000	5.01E-02	-1.02E-01	9.74E-02	8.55E-01	0.00E+00	0.00E+00	0.00E+00	0.00E+00
	3250000000	3.55E-02	-3.32E-02	-6.92E-02	8.44E-01	0.00E+00	0.00E+00	0.00E+00	0.00E+00
	3300000000	6.60E-02	2.51E-03	-2.34E-01	8.09E-01	0.00E+00	0.00E+00	0.00E+00	0.00E+00
	3350000000	9.02E-02	8.97E-03	-3.78E-01	7.41E-01	0.00E+00	0.00E+00	0.00E+00	0.00E+00
	3400000000	9.30E-02	2.78E-02	-4.95E-01	6.54E-01	0.00E+00	0.00E+00	0.00E+00	0.00E+00
	3450000000	1.84E-01	9.19E-02	-5.20E-01	5.06E-01	0.00E+00	0.00E+00	0.00E+00	0.00E+00
	3500000000	2.72E-01	-9.08E-03	-5.90E-01	2.73E-01	0.00E+00	0.00E+00	0.00E+00	0.00E+00
	3550000000	2.58E-01	-1.53E-01	-6.67E-01	2.60E-02	0.00E+00	0.00E+00	0.00E+00	0.00E+00
	3600000000	1.42E-01	-1.88E-01	-7.38E-01	-1.44E-01	0.00E+00	0.00E+00	0.00E+00	0.00E+00
	3650000000	7.95E-02	-1.61E-01	-7.26E-01	-3.03E-01	0.00E+00	0.00E+00	0.00E+00	0.00E+00
	3700000000	3.10E-02	-1.31E-01	-6.69E-01	-4.79E-01	0.00E+00	0.00E+00	0.00E+00	0.00E+00
	3750000000	-7.28E-03	-6.43E-02	-5.96E-01	-6.32E-01	0.00E+00	0.00E+00	0.00E+00	0.00E+00
	3800000000	2.15E-02	1.68E-02	-4.85E-01	-7.35E-01	0.00E+00	0.00E+00	0.00E+00	0.00E+00
	3850000000	8.16E-02	3.07E-02	-3.16E-01	-8.12E-01	0.00E+00	0.00E+00	0.00E+00	0.00E+00
	3900000000	9.13E-02	3.02E-02	-1.42E-01	-8.72E-01	0.00E+00	0.00E+00	0.00E+00	0.00E+00
	3950000000	1.27E-01	8.90E-02	2.69E-02	-8.71E-01	0.00E+00	0.00E+00	0.00E+00	0.00E+00
	4000000000	2.71E-01	9.20E-02	2.36E-01	-8.20E-01	0.00E+00	0.00E+00	0.00E+00	0.00E+00
	4050000000	3.86E-01	-7.42E-02	4.42E-01	-7.70E-01	0.00E+00	0.00E+00	0.00E+00	0.00E+00
	4100000000	3.14E-01	-2.94E-01	5.89E-01	-6.92E-01	0.00E+00	0.00E+00	0.00E+00	0.00E+00
	4150000000	9.30E-02	-3.80E-01	7.17E-01	-5.45E-01	0.00E+00	0.00E+00	0.00E+00	0.00E+00
	4200000000	-8.94E-02	-2.78E-01	8.51E-01	-3.87E-01	0.00E+00	0.00E+00	0.00E+00	0.00E+00
	4250000000	-1.36E-01	-1.41E-01	9.16E-01	-2.40E-01	0.00E+00	0.00E+00	0.00E+00	0.00E+00
	4300000000	-1.56E-01	-3.53E-02	9.16E-01	-5.36E-02	0.00E+00	0.00E+00	0.00E+00	0.00E+00
	4350000000	-1.29E-01	1.43E-01	8.99E-01	1.30E-01	0.00E+00	0.00E+00	0.00E+00	0.00E+00
	4400000000	9.29E-02	2.88E-01	8.21E-01	2.97E-01	0.00E+00	0.00E+00	0.00E+00	0.00E+00
	4450000000	3.84E-01	1.78E-01	6.92E-01	4.71E-01	0.00E+00	0.00E+00	0.00E+00	0.00E+00
	4500000000	4.73E-01	-1.17E-01	5.53E-01	6.34E-01	0.00E+00	0.00E+00	0.00E+00	0.00E+00
	4550000000	3.19E-01	-3.45E-01	3.86E-01	7.40E-01	0.00E+00	0.00E+00	0.00E+00	0.00E+00
	4600000000	1.10E-01	-3.58E-01	1.78E-01	8.32E-01	0.00E+00	0.00E+00	0.00E+00	0.00E+00
	4650000000	2.87E-02	-3.08E-01	-2.21E-02	8.76E-01	0.00E+00	0.00E+00	0.00E+00	0.00E+00
	4700000000	-7.21E-02	-2.41E-01	-2.51E-01	8.87E-01	0.00E+00	0.00E+00	0.00E+00	0.00E+00
	4750000000	-1.14E-01	-1.64E-01	-4.31E-01	8.21E-01	0.00E+00	0.00E+00	0.00E+00	0.00E+00
	4800000000	-1.37E-01	7.45E-03	-6.92E-01	7.36E-01	0.00E+00	0.00E+00	0.00E+00	0.00E+00
	4850000000	5.49E-02	1.43E-01	-9.34E-01	7.07E-01	0.00E+00	0.00E+00	0.00E+00	0.00E+00
	4900000000	2.55E-01	1.24E-02	-1.04E+00	6.71E-01	0.00E+00	0.00E+00	0.00E+00	0.00E+00
	4950000000	2.02E-01	-1.89E-01	-1.05E+00	5.39E-01	0.00E+00	0.00E+00	0.00E+00	0.00E+00
	5000000000	2.21E-02	-1.70E-01	-1.07E+00	3.46E-01	0.00E+00	0.00E+00	0.00E+00	0.00E+00
	5050000000	4.55E-02	5.29E-03	-1.09E+00	5.65E-02	0.00E+00	0.00E+00	0.00E+00	0.00E+00
	5100000000	2.44E-01	-1.97E-02	-1.09E+00	-3.95E-02	0.00E+00	0.00E+00	0.00E+00	0.00E+00
	5150000000	2.66E-01	-2.39E-01	-9.97E-01	-2.11E-01	0.00E+00	0.00E+00	0.00E+00	0.00E+00
	5200000000	6.68E-02	-3.43E-01	-8.76E-01	-3.81E-01	0.00E+00	0.00E+00	0.00E+00	0.00E+00
	5250000000	-7.80E-02	-2.28E-01	-7.43E-01	-5.53E-01	0.00E+00	0.00E+00	0.00E+00	0.00E+00
	5300000000	-3.61E-02	-1.40E-01	-6.00E-01	-6.94E-01	0.00E+00	0.00E+00	0.00E+00	0.00E+00
	5350000000	-5.02E-02	-1.87E-01	-4.48E-01	-7.54E-01	0.00E+00	0.00E+00	0.00E+00	0.00E+00
	5400000000	-1.59E-01	-1.14E-01	-2.36E-01	-8.03E-01	0.00E+00	0.00E+00	0.00E+00	0.00E+00
	5450000000	-1.04E-01	6.91E-02	-5.60E-02	-8.49E-01	0.00E+00	0.00E+00	0.00E+00	0.00E+00
	5500000000	1.17E-01	6.69E-02	7.84E-02	-8.11E-01	0.00E+00	0.00E+00	0.00E+00	0.00E+00
	5550000000	1.78E-01	-1.25E-01	2.52E-01	-6.92E-01	0.00E+00	0.00E+00	0.00E+00	0.00E+00
	5600000000	4.24E-02	-1.98E-01	4.08E-01	-5.60E-01	0.00E+00	0.00E+00	0.00E+00	0.00E+00
	5650000000	3.55E-02	-1.32E-01	5.61E-01	-4.07E-01	0.00E+00	0.00E+00	0.00E+00	0.00E+00
	5700000000	8.82E-02	-1.41E-01	6.71E-01	-2.69E-01	0.00E+00	0.00E+00	0.00E+00	0.00E+00
	5750000000	1.25E-01	-2.27E-01	7.20E-01	-1.05E-01	0.00E+00	0.00E+00	0.00E+00	0.00E+00
	5800000000	5.57E-02	-3.25E-01	7.38E-01	6.19E-02	0.00E+00	0.00E+00	0.00E+00	0.00E+00
	5850000000	-6.58E-02	-3.23E-01	7.06E-01	2.28E-01	0.00E+00	0.00E+00	0.00E+00	0.00E+00
	5900000000	-9.08E-02	-2.24E-01	6.61E-01	3.98E-01	0.00E+00	0.00E+00	0.00E+00	0.00E+00
	5950000000	-2.28E-02	-2.29E-01	5.97E-01	5.07E-01	0.00E+00	0.00E+00	0.00E+00	0.00E+00
	6000000000	-1.27E-01	-2.68E-01	7.52E-01	4.90E-02	0.00E+00	0.00E+00	0.00E+00	0.00E+00
