! NanoVNA-App									
! Date: 2024-03-20 21:02:38									
! Start: 1GHz Stop: 6GHz Points: 101									
! S-Parameter data: F S11 S21 S12 S22									
# Hz S RI R 50									
!	Frequency	S11_Real	S11_Imag	S21_Real	S21_Imag	S12_Real	S12_Imag	S22_Real	S22_Imag
	1000000000	1.23E-01	-2.40E-02	-5.53E-01	-8.79E-01	0.00E+00	0.00E+00	0.00E+00	0.00E+00
	1050000000	5.31E-02	-2.35E-02	-3.72E-01	-9.66E-01	0.00E+00	0.00E+00	0.00E+00	0.00E+00
	1100000000	4.98E-02	-1.10E-02	-1.65E-01	-1.02E+00	0.00E+00	0.00E+00	0.00E+00	0.00E+00
	1150000000	3.07E-02	-4.56E-02	3.96E-02	-1.03E+00	0.00E+00	0.00E+00	0.00E+00	0.00E+00
	1200000000	-4.88E-02	-3.57E-02	2.46E-01	-9.89E-01	0.00E+00	0.00E+00	0.00E+00	0.00E+00
	1250000000	-7.64E-02	6.71E-02	4.51E-01	-9.08E-01	0.00E+00	0.00E+00	0.00E+00	0.00E+00
	1300000000	1.69E-02	1.36E-01	6.32E-01	-7.99E-01	0.00E+00	0.00E+00	0.00E+00	0.00E+00
	1350000000	1.03E-01	6.55E-02	7.72E-01	-6.50E-01	0.00E+00	0.00E+00	0.00E+00	0.00E+00
	1400000000	7.60E-02	4.72E-03	9.03E-01	-4.81E-01	0.00E+00	0.00E+00	0.00E+00	0.00E+00
	1450000000	1.90E-02	2.04E-02	9.75E-01	-2.97E-01	0.00E+00	0.00E+00	0.00E+00	0.00E+00
	1500000000	5.16E-02	6.25E-02	1.00E+00	-9.99E-02	0.00E+00	0.00E+00	0.00E+00	0.00E+00
	1550000000	9.34E-02	6.85E-03	9.90E-01	1.03E-01	0.00E+00	0.00E+00	0.00E+00	0.00E+00
	1600000000	1.15E-02	-5.33E-02	9.43E-01	2.92E-01	0.00E+00	0.00E+00	0.00E+00	0.00E+00
	1650000000	-9.15E-02	4.29E-02	8.55E-01	4.62E-01	0.00E+00	0.00E+00	0.00E+00	0.00E+00
	1700000000	-1.96E-02	2.00E-01	7.27E-01	6.04E-01	0.00E+00	0.00E+00	0.00E+00	0.00E+00
	1750000000	1.66E-01	1.97E-01	5.69E-01	7.35E-01	0.00E+00	0.00E+00	0.00E+00	0.00E+00
	1800000000	2.42E-01	3.70E-02	4.17E-01	8.43E-01	0.00E+00	0.00E+00	0.00E+00	0.00E+00
	1850000000	1.52E-01	-7.88E-02	2.66E-01	8.96E-01	0.00E+00	0.00E+00	0.00E+00	0.00E+00
	1900000000	5.80E-02	-5.89E-02	1.19E-01	9.11E-01	0.00E+00	0.00E+00	0.00E+00	0.00E+00
	1950000000	4.61E-02	-1.78E-02	2.62E-03	8.86E-01	0.00E+00	0.00E+00	0.00E+00	0.00E+00
	2000000000	7.29E-02	-1.48E-02	-5.25E-02	8.04E-01	0.00E+00	0.00E+00	0.00E+00	0.00E+00
	2050000000	6.06E-02	-1.85E-01	-3.97E-02	5.57E-01	0.00E+00	0.00E+00	0.00E+00	0.00E+00
	2100000000	-3.93E-01	-3.42E-02	-2.77E-01	1.97E-01	0.00E+00	0.00E+00	0.00E+00	0.00E+00
	2150000000	-1.84E-01	4.68E-01	-4.93E-01	5.95E-02	0.00E+00	0.00E+00	0.00E+00	0.00E+00
	2200000000	2.71E-01	4.77E-01	-5.91E-01	-5.61E-02	0.00E+00	0.00E+00	0.00E+00	0.00E+00
	2250000000	5.13E-01	1.71E-01	-6.25E-01	-1.68E-01	0.00E+00	0.00E+00	0.00E+00	0.00E+00
	2300000000	4.55E-01	-1.72E-01	-5.97E-01	-2.73E-01	0.00E+00	0.00E+00	0.00E+00	0.00E+00
	2350000000	1.98E-01	-3.52E-01	-5.27E-01	-3.82E-01	0.00E+00	0.00E+00	0.00E+00	0.00E+00
	2400000000	-8.96E-02	-3.02E-01	-4.38E-01	-4.75E-01	0.00E+00	0.00E+00	0.00E+00	0.00E+00
	2450000000	-2.36E-01	-6.54E-02	-3.48E-01	-5.34E-01	0.00E+00	0.00E+00	0.00E+00	0.00E+00
	2500000000	-1.11E-01	1.38E-01	-2.78E-01	-5.04E-01	0.00E+00	0.00E+00	0.00E+00	0.00E+00
	2550000000	-1.44E-01	1.27E-01	-1.51E-02	-3.40E-01	0.00E+00	0.00E+00	0.00E+00	0.00E+00
	2600000000	4.53E-02	3.59E-01	2.38E-01	-3.97E-01	0.00E+00	0.00E+00	0.00E+00	0.00E+00
	2650000000	3.27E-01	2.52E-01	3.81E-01	-3.75E-01	0.00E+00	0.00E+00	0.00E+00	0.00E+00
	2700000000	3.94E-01	-1.42E-02	5.04E-01	-2.93E-01	0.00E+00	0.00E+00	0.00E+00	0.00E+00
	2750000000	2.45E-01	-2.07E-01	6.11E-01	-1.84E-01	0.00E+00	0.00E+00	0.00E+00	0.00E+00
	2800000000	4.46E-02	-2.07E-01	6.92E-01	-5.81E-02	0.00E+00	0.00E+00	0.00E+00	0.00E+00
	2850000000	-5.60E-02	-8.86E-02	7.39E-01	6.20E-02	0.00E+00	0.00E+00	0.00E+00	0.00E+00
	2900000000	-3.70E-02	2.85E-02	7.19E-01	1.88E-01	0.00E+00	0.00E+00	0.00E+00	0.00E+00
	2950000000	1.81E-02	6.76E-02	6.45E-01	3.64E-01	0.00E+00	0.00E+00	0.00E+00	0.00E+00
	3000000000	1.00E-01	1.20E-01	5.98E-01	5.17E-01	0.00E+00	0.00E+00	0.00E+00	0.00E+00
	3050000000	2.10E-01	6.34E-02	4.96E-01	6.31E-01	0.00E+00	0.00E+00	0.00E+00	0.00E+00
	3100000000	2.26E-01	-6.18E-02	3.60E-01	7.40E-01	0.00E+00	0.00E+00	0.00E+00	0.00E+00
	3150000000	1.37E-01	-1.38E-01	2.30E-01	8.24E-01	0.00E+00	0.00E+00	0.00E+00	0.00E+00
	3200000000	4.41E-02	-1.06E-01	8.89E-02	8.50E-01	0.00E+00	0.00E+00	0.00E+00	0.00E+00
	3250000000	2.91E-02	-3.14E-02	-7.68E-02	8.37E-01	0.00E+00	0.00E+00	0.00E+00	0.00E+00
	3300000000	6.34E-02	7.70E-03	-2.35E-01	8.03E-01	0.00E+00	0.00E+00	0.00E+00	0.00E+00
	3350000000	9.20E-02	1.26E-02	-3.81E-01	7.36E-01	0.00E+00	0.00E+00	0.00E+00	0.00E+00
	3400000000	9.42E-02	2.89E-02	-4.97E-01	6.50E-01	0.00E+00	0.00E+00	0.00E+00	0.00E+00
	3450000000	1.85E-01	9.38E-02	-5.18E-01	5.05E-01	0.00E+00	0.00E+00	0.00E+00	0.00E+00
	3500000000	2.76E-01	-8.60E-03	-5.84E-01	2.72E-01	0.00E+00	0.00E+00	0.00E+00	0.00E+00
	3550000000	2.62E-01	-1.56E-01	-6.60E-01	2.10E-02	0.00E+00	0.00E+00	0.00E+00	0.00E+00
	3600000000	1.41E-01	-1.92E-01	-7.32E-01	-1.47E-01	0.00E+00	0.00E+00	0.00E+00	0.00E+00
	3650000000	7.70E-02	-1.63E-01	-7.20E-01	-3.09E-01	0.00E+00	0.00E+00	0.00E+00	0.00E+00
	3700000000	2.87E-02	-1.31E-01	-6.64E-01	-4.80E-01	0.00E+00	0.00E+00	0.00E+00	0.00E+00
	3750000000	-8.95E-03	-6.42E-02	-5.90E-01	-6.32E-01	0.00E+00	0.00E+00	0.00E+00	0.00E+00
	3800000000	1.94E-02	1.83E-02	-4.83E-01	-7.31E-01	0.00E+00	0.00E+00	0.00E+00	0.00E+00
	3850000000	8.21E-02	3.48E-02	-3.15E-01	-8.07E-01	0.00E+00	0.00E+00	0.00E+00	0.00E+00
	3900000000	9.49E-02	3.36E-02	-1.36E-01	-8.67E-01	0.00E+00	0.00E+00	0.00E+00	0.00E+00
	3950000000	1.32E-01	8.79E-02	3.34E-02	-8.65E-01	0.00E+00	0.00E+00	0.00E+00	0.00E+00
	4000000000	2.73E-01	8.70E-02	2.37E-01	-8.15E-01	0.00E+00	0.00E+00	0.00E+00	0.00E+00
	4050000000	3.83E-01	-7.68E-02	4.46E-01	-7.62E-01	0.00E+00	0.00E+00	0.00E+00	0.00E+00
	4100000000	3.10E-01	-2.94E-01	5.89E-01	-6.85E-01	0.00E+00	0.00E+00	0.00E+00	0.00E+00
	4150000000	9.06E-02	-3.79E-01	7.20E-01	-5.35E-01	0.00E+00	0.00E+00	0.00E+00	0.00E+00
	4200000000	-9.14E-02	-2.76E-01	8.51E-01	-3.78E-01	0.00E+00	0.00E+00	0.00E+00	0.00E+00
	4250000000	-1.36E-01	-1.37E-01	9.14E-01	-2.33E-01	0.00E+00	0.00E+00	0.00E+00	0.00E+00
	4300000000	-1.52E-01	-3.29E-02	9.14E-01	-4.69E-02	0.00E+00	0.00E+00	0.00E+00	0.00E+00
	4350000000	-1.25E-01	1.41E-01	8.97E-01	1.38E-01	0.00E+00	0.00E+00	0.00E+00	0.00E+00
	4400000000	9.33E-02	2.85E-01	8.19E-01	3.01E-01	0.00E+00	0.00E+00	0.00E+00	0.00E+00
	4450000000	3.82E-01	1.76E-01	6.88E-01	4.76E-01	0.00E+00	0.00E+00	0.00E+00	0.00E+00
	4500000000	4.72E-01	-1.17E-01	5.50E-01	6.41E-01	0.00E+00	0.00E+00	0.00E+00	0.00E+00
	4550000000	3.17E-01	-3.44E-01	3.82E-01	7.44E-01	0.00E+00	0.00E+00	0.00E+00	0.00E+00
	4600000000	1.09E-01	-3.55E-01	1.78E-01	8.33E-01	0.00E+00	0.00E+00	0.00E+00	0.00E+00
	4650000000	3.06E-02	-3.05E-01	-2.19E-02	8.74E-01	0.00E+00	0.00E+00	0.00E+00	0.00E+00
	4700000000	-7.01E-02	-2.41E-01	-2.56E-01	8.84E-01	0.00E+00	0.00E+00	0.00E+00	0.00E+00
	4750000000	-1.13E-01	-1.63E-01	-4.35E-01	8.19E-01	0.00E+00	0.00E+00	0.00E+00	0.00E+00
	4800000000	-1.36E-01	4.52E-03	-6.94E-01	7.36E-01	0.00E+00	0.00E+00	0.00E+00	0.00E+00
	4850000000	5.40E-02	1.40E-01	-9.36E-01	7.02E-01	0.00E+00	0.00E+00	0.00E+00	0.00E+00
	4900000000	2.53E-01	1.17E-02	-1.04E+00	6.65E-01	0.00E+00	0.00E+00	0.00E+00	0.00E+00
	4950000000	2.00E-01	-1.88E-01	-1.05E+00	5.38E-01	0.00E+00	0.00E+00	0.00E+00	0.00E+00
	5000000000	2.03E-02	-1.68E-01	-1.07E+00	3.46E-01	0.00E+00	0.00E+00	0.00E+00	0.00E+00
	5050000000	4.57E-02	7.47E-03	-1.09E+00	5.54E-02	0.00E+00	0.00E+00	0.00E+00	0.00E+00
	5100000000	2.45E-01	-1.81E-02	-1.09E+00	-4.35E-02	0.00E+00	0.00E+00	0.00E+00	0.00E+00
	5150000000	2.69E-01	-2.39E-01	-9.96E-01	-2.11E-01	0.00E+00	0.00E+00	0.00E+00	0.00E+00
	5200000000	6.81E-02	-3.45E-01	-8.75E-01	-3.83E-01	0.00E+00	0.00E+00	0.00E+00	0.00E+00
	5250000000	-7.88E-02	-2.29E-01	-7.41E-01	-5.55E-01	0.00E+00	0.00E+00	0.00E+00	0.00E+00
	5300000000	-3.78E-02	-1.41E-01	-5.98E-01	-6.95E-01	0.00E+00	0.00E+00	0.00E+00	0.00E+00
	5350000000	-5.33E-02	-1.85E-01	-4.47E-01	-7.52E-01	0.00E+00	0.00E+00	0.00E+00	0.00E+00
	5400000000	-1.61E-01	-1.13E-01	-2.32E-01	-8.04E-01	0.00E+00	0.00E+00	0.00E+00	0.00E+00
	5450000000	-1.04E-01	7.07E-02	-5.29E-02	-8.50E-01	0.00E+00	0.00E+00	0.00E+00	0.00E+00
	5500000000	1.19E-01	6.78E-02	7.99E-02	-8.12E-01	0.00E+00	0.00E+00	0.00E+00	0.00E+00
	5550000000	1.80E-01	-1.26E-01	2.39E-01	-7.00E-01	0.00E+00	0.00E+00	0.00E+00	0.00E+00
	5600000000	4.38E-02	-2.00E-01	4.11E-01	-5.57E-01	0.00E+00	0.00E+00	0.00E+00	0.00E+00
	5650000000	3.70E-02	-1.33E-01	5.60E-01	-4.05E-01	0.00E+00	0.00E+00	0.00E+00	0.00E+00
	5700000000	8.63E-02	-1.42E-01	6.69E-01	-2.65E-01	0.00E+00	0.00E+00	0.00E+00	0.00E+00
	5750000000	1.22E-01	-2.28E-01	7.18E-01	-1.04E-01	0.00E+00	0.00E+00	0.00E+00	0.00E+00
	5800000000	5.67E-02	-3.24E-01	7.38E-01	6.48E-02	0.00E+00	0.00E+00	0.00E+00	0.00E+00
	5850000000	-6.46E-02	-3.19E-01	7.03E-01	2.32E-01	0.00E+00	0.00E+00	0.00E+00	0.00E+00
	5900000000	-9.09E-02	-2.22E-01	6.59E-01	3.97E-01	0.00E+00	0.00E+00	0.00E+00	0.00E+00
	5950000000	-2.06E-02	-2.29E-01	5.92E-01	5.10E-01	0.00E+00	0.00E+00	0.00E+00	0.00E+00
	6000000000	-1.25E-01	-2.70E-01	7.51E-01	5.40E-02	0.00E+00	0.00E+00	0.00E+00	0.00E+00
