! NanoVNA-App									
! Date: 2024-03-21 01:31:52									
! Start: 1GHz Stop: 6GHz Points: 101									
! S-Parameter data: F S11 S21 S12 S22									
# Hz S RI R 50									
!	Frequency	S11_Real	S11_Imag	S21_Real	S21_Imag	S12_Real	S12_Imag	S22_Real	S22_Imag
	1000000000	1.22E-01	-2.27E-02	-5.56E-01	-8.78E-01	0.00E+00	0.00E+00	0.00E+00	0.00E+00
	1050000000	5.26E-02	-2.23E-02	-3.74E-01	-9.64E-01	0.00E+00	0.00E+00	0.00E+00	0.00E+00
	1100000000	5.01E-02	-1.12E-02	-1.68E-01	-1.02E+00	0.00E+00	0.00E+00	0.00E+00	0.00E+00
	1150000000	3.04E-02	-4.67E-02	3.79E-02	-1.03E+00	0.00E+00	0.00E+00	0.00E+00	0.00E+00
	1200000000	-5.00E-02	-3.70E-02	2.44E-01	-9.90E-01	0.00E+00	0.00E+00	0.00E+00	0.00E+00
	1250000000	-7.78E-02	6.59E-02	4.49E-01	-9.10E-01	0.00E+00	0.00E+00	0.00E+00	0.00E+00
	1300000000	1.47E-02	1.34E-01	6.31E-01	-8.02E-01	0.00E+00	0.00E+00	0.00E+00	0.00E+00
	1350000000	9.96E-02	6.58E-02	7.73E-01	-6.54E-01	0.00E+00	0.00E+00	0.00E+00	0.00E+00
	1400000000	7.26E-02	4.86E-03	9.02E-01	-4.83E-01	0.00E+00	0.00E+00	0.00E+00	0.00E+00
	1450000000	1.72E-02	2.30E-02	9.74E-01	-2.99E-01	0.00E+00	0.00E+00	0.00E+00	0.00E+00
	1500000000	5.29E-02	6.51E-02	1.00E+00	-1.01E-01	0.00E+00	0.00E+00	0.00E+00	0.00E+00
	1550000000	9.72E-02	6.78E-03	9.92E-01	1.02E-01	0.00E+00	0.00E+00	0.00E+00	0.00E+00
	1600000000	1.53E-02	-5.73E-02	9.45E-01	2.93E-01	0.00E+00	0.00E+00	0.00E+00	0.00E+00
	1650000000	-9.14E-02	3.58E-02	8.58E-01	4.64E-01	0.00E+00	0.00E+00	0.00E+00	0.00E+00
	1700000000	-2.47E-02	1.94E-01	7.32E-01	6.07E-01	0.00E+00	0.00E+00	0.00E+00	0.00E+00
	1750000000	1.59E-01	1.96E-01	5.74E-01	7.39E-01	0.00E+00	0.00E+00	0.00E+00	0.00E+00
	1800000000	2.35E-01	4.17E-02	4.21E-01	8.49E-01	0.00E+00	0.00E+00	0.00E+00	0.00E+00
	1850000000	1.52E-01	-7.04E-02	2.69E-01	9.03E-01	0.00E+00	0.00E+00	0.00E+00	0.00E+00
	1900000000	6.51E-02	-5.30E-02	1.20E-01	9.18E-01	0.00E+00	0.00E+00	0.00E+00	0.00E+00
	1950000000	5.60E-02	-2.00E-02	5.41E-03	8.95E-01	0.00E+00	0.00E+00	0.00E+00	0.00E+00
	2000000000	7.81E-02	-2.27E-02	-5.17E-02	8.13E-01	0.00E+00	0.00E+00	0.00E+00	0.00E+00
	2050000000	6.09E-02	-1.96E-01	-3.91E-02	5.68E-01	0.00E+00	0.00E+00	0.00E+00	0.00E+00
	2100000000	-3.99E-01	-4.70E-02	-2.80E-01	2.06E-01	0.00E+00	0.00E+00	0.00E+00	0.00E+00
	2150000000	-1.99E-01	4.66E-01	-5.01E-01	6.69E-02	0.00E+00	0.00E+00	0.00E+00	0.00E+00
	2200000000	2.58E-01	4.87E-01	-6.05E-01	-5.21E-02	0.00E+00	0.00E+00	0.00E+00	0.00E+00
	2250000000	5.11E-01	1.87E-01	-6.42E-01	-1.63E-01	0.00E+00	0.00E+00	0.00E+00	0.00E+00
	2300000000	4.66E-01	-1.56E-01	-6.17E-01	-2.70E-01	0.00E+00	0.00E+00	0.00E+00	0.00E+00
	2350000000	2.20E-01	-3.47E-01	-5.50E-01	-3.79E-01	0.00E+00	0.00E+00	0.00E+00	0.00E+00
	2400000000	-6.69E-02	-3.22E-01	-4.65E-01	-4.76E-01	0.00E+00	0.00E+00	0.00E+00	0.00E+00
	2450000000	-2.40E-01	-9.70E-02	-3.77E-01	-5.37E-01	0.00E+00	0.00E+00	0.00E+00	0.00E+00
	2500000000	-1.37E-01	1.24E-01	-3.13E-01	-5.08E-01	0.00E+00	0.00E+00	0.00E+00	0.00E+00
	2550000000	-1.74E-01	1.40E-01	-4.39E-02	-3.47E-01	0.00E+00	0.00E+00	0.00E+00	0.00E+00
	2600000000	3.63E-02	3.84E-01	2.01E-01	-4.06E-01	0.00E+00	0.00E+00	0.00E+00	0.00E+00
	2650000000	3.41E-01	2.77E-01	3.44E-01	-3.85E-01	0.00E+00	0.00E+00	0.00E+00	0.00E+00
	2700000000	4.20E-01	-1.03E-02	4.70E-01	-3.09E-01	0.00E+00	0.00E+00	0.00E+00	0.00E+00
	2750000000	2.69E-01	-2.24E-01	5.80E-01	-1.99E-01	0.00E+00	0.00E+00	0.00E+00	0.00E+00
	2800000000	4.73E-02	-2.37E-01	6.64E-01	-7.40E-02	0.00E+00	0.00E+00	0.00E+00	0.00E+00
	2850000000	-8.03E-02	-1.09E-01	7.17E-01	4.35E-02	0.00E+00	0.00E+00	0.00E+00	0.00E+00
	2900000000	-6.52E-02	3.51E-02	7.01E-01	1.68E-01	0.00E+00	0.00E+00	0.00E+00	0.00E+00
	2950000000	7.05E-03	9.28E-02	6.23E-01	3.38E-01	0.00E+00	0.00E+00	0.00E+00	0.00E+00
	3000000000	1.12E-01	1.38E-01	5.85E-01	4.96E-01	0.00E+00	0.00E+00	0.00E+00	0.00E+00
	3050000000	2.28E-01	6.60E-02	4.88E-01	6.10E-01	0.00E+00	0.00E+00	0.00E+00	0.00E+00
	3100000000	2.39E-01	-6.97E-02	3.56E-01	7.21E-01	0.00E+00	0.00E+00	0.00E+00	0.00E+00
	3150000000	1.40E-01	-1.52E-01	2.34E-01	8.05E-01	0.00E+00	0.00E+00	0.00E+00	0.00E+00
	3200000000	3.86E-02	-1.18E-01	9.43E-02	8.32E-01	0.00E+00	0.00E+00	0.00E+00	0.00E+00
	3250000000	1.86E-02	-3.48E-02	-6.83E-02	8.23E-01	0.00E+00	0.00E+00	0.00E+00	0.00E+00
	3300000000	5.64E-02	1.36E-02	-2.28E-01	7.89E-01	0.00E+00	0.00E+00	0.00E+00	0.00E+00
	3350000000	9.19E-02	1.90E-02	-3.69E-01	7.27E-01	0.00E+00	0.00E+00	0.00E+00	0.00E+00
	3400000000	9.68E-02	3.13E-02	-4.84E-01	6.47E-01	0.00E+00	0.00E+00	0.00E+00	0.00E+00
	3450000000	1.86E-01	9.60E-02	-5.06E-01	5.08E-01	0.00E+00	0.00E+00	0.00E+00	0.00E+00
	3500000000	2.80E-01	-5.93E-03	-5.69E-01	2.76E-01	0.00E+00	0.00E+00	0.00E+00	0.00E+00
	3550000000	2.71E-01	-1.54E-01	-6.38E-01	3.19E-02	0.00E+00	0.00E+00	0.00E+00	0.00E+00
	3600000000	1.48E-01	-1.99E-01	-7.10E-01	-1.41E-01	0.00E+00	0.00E+00	0.00E+00	0.00E+00
	3650000000	7.43E-02	-1.72E-01	-7.04E-01	-2.99E-01	0.00E+00	0.00E+00	0.00E+00	0.00E+00
	3700000000	2.21E-02	-1.34E-01	-6.51E-01	-4.71E-01	0.00E+00	0.00E+00	0.00E+00	0.00E+00
	3750000000	-1.43E-02	-6.13E-02	-5.80E-01	-6.23E-01	0.00E+00	0.00E+00	0.00E+00	0.00E+00
	3800000000	1.66E-02	2.33E-02	-4.75E-01	-7.20E-01	0.00E+00	0.00E+00	0.00E+00	0.00E+00
	3850000000	8.20E-02	4.19E-02	-3.11E-01	-7.94E-01	0.00E+00	0.00E+00	0.00E+00	0.00E+00
	3900000000	9.91E-02	3.92E-02	-1.32E-01	-8.55E-01	0.00E+00	0.00E+00	0.00E+00	0.00E+00
	3950000000	1.40E-01	8.70E-02	3.21E-02	-8.54E-01	0.00E+00	0.00E+00	0.00E+00	0.00E+00
	4000000000	2.76E-01	8.09E-02	2.38E-01	-8.04E-01	0.00E+00	0.00E+00	0.00E+00	0.00E+00
	4050000000	3.81E-01	-8.17E-02	4.43E-01	-7.53E-01	0.00E+00	0.00E+00	0.00E+00	0.00E+00
	4100000000	3.06E-01	-2.96E-01	5.86E-01	-6.79E-01	0.00E+00	0.00E+00	0.00E+00	0.00E+00
	4150000000	8.70E-02	-3.78E-01	7.17E-01	-5.31E-01	0.00E+00	0.00E+00	0.00E+00	0.00E+00
	4200000000	-9.39E-02	-2.73E-01	8.46E-01	-3.79E-01	0.00E+00	0.00E+00	0.00E+00	0.00E+00
	4250000000	-1.36E-01	-1.34E-01	9.09E-01	-2.33E-01	0.00E+00	0.00E+00	0.00E+00	0.00E+00
	4300000000	-1.50E-01	-3.02E-02	9.11E-01	-4.96E-02	0.00E+00	0.00E+00	0.00E+00	0.00E+00
	4350000000	-1.22E-01	1.39E-01	8.94E-01	1.33E-01	0.00E+00	0.00E+00	0.00E+00	0.00E+00
	4400000000	9.30E-02	2.80E-01	8.16E-01	2.99E-01	0.00E+00	0.00E+00	0.00E+00	0.00E+00
	4450000000	3.79E-01	1.73E-01	6.88E-01	4.73E-01	0.00E+00	0.00E+00	0.00E+00	0.00E+00
	4500000000	4.68E-01	-1.20E-01	5.52E-01	6.35E-01	0.00E+00	0.00E+00	0.00E+00	0.00E+00
	4550000000	3.13E-01	-3.46E-01	3.84E-01	7.41E-01	0.00E+00	0.00E+00	0.00E+00	0.00E+00
	4600000000	1.06E-01	-3.52E-01	1.82E-01	8.31E-01	0.00E+00	0.00E+00	0.00E+00	0.00E+00
	4650000000	3.53E-02	-3.03E-01	-1.32E-02	8.69E-01	0.00E+00	0.00E+00	0.00E+00	0.00E+00
	4700000000	-6.64E-02	-2.40E-01	-2.46E-01	8.82E-01	0.00E+00	0.00E+00	0.00E+00	0.00E+00
	4750000000	-1.08E-01	-1.65E-01	-4.25E-01	8.19E-01	0.00E+00	0.00E+00	0.00E+00	0.00E+00
	4800000000	-1.31E-01	-1.14E-03	-6.89E-01	7.31E-01	0.00E+00	0.00E+00	0.00E+00	0.00E+00
	4850000000	5.53E-02	1.33E-01	-9.25E-01	7.08E-01	0.00E+00	0.00E+00	0.00E+00	0.00E+00
	4900000000	2.50E-01	4.97E-03	-1.03E+00	6.75E-01	0.00E+00	0.00E+00	0.00E+00	0.00E+00
	4950000000	1.94E-01	-1.90E-01	-1.04E+00	5.41E-01	0.00E+00	0.00E+00	0.00E+00	0.00E+00
	5000000000	1.88E-02	-1.63E-01	-1.06E+00	3.54E-01	0.00E+00	0.00E+00	0.00E+00	0.00E+00
	5050000000	5.05E-02	1.21E-02	-1.08E+00	7.01E-02	0.00E+00	0.00E+00	0.00E+00	0.00E+00
	5100000000	2.52E-01	-1.84E-02	-1.08E+00	-2.69E-02	0.00E+00	0.00E+00	0.00E+00	0.00E+00
	5150000000	2.73E-01	-2.42E-01	-9.89E-01	-1.97E-01	0.00E+00	0.00E+00	0.00E+00	0.00E+00
	5200000000	7.34E-02	-3.49E-01	-8.70E-01	-3.72E-01	0.00E+00	0.00E+00	0.00E+00	0.00E+00
	5250000000	-7.56E-02	-2.35E-01	-7.43E-01	-5.41E-01	0.00E+00	0.00E+00	0.00E+00	0.00E+00
	5300000000	-3.79E-02	-1.46E-01	-6.01E-01	-6.82E-01	0.00E+00	0.00E+00	0.00E+00	0.00E+00
	5350000000	-5.72E-02	-1.84E-01	-4.55E-01	-7.38E-01	0.00E+00	0.00E+00	0.00E+00	0.00E+00
	5400000000	-1.60E-01	-1.10E-01	-2.42E-01	-7.94E-01	0.00E+00	0.00E+00	0.00E+00	0.00E+00
	5450000000	-9.91E-02	7.23E-02	-6.29E-02	-8.43E-01	0.00E+00	0.00E+00	0.00E+00	0.00E+00
	5500000000	1.25E-01	6.67E-02	6.88E-02	-8.05E-01	0.00E+00	0.00E+00	0.00E+00	0.00E+00
	5550000000	1.84E-01	-1.29E-01	2.36E-01	-6.92E-01	0.00E+00	0.00E+00	0.00E+00	0.00E+00
	5600000000	4.69E-02	-2.03E-01	4.00E-01	-5.57E-01	0.00E+00	0.00E+00	0.00E+00	0.00E+00
	5650000000	3.79E-02	-1.37E-01	5.50E-01	-4.09E-01	0.00E+00	0.00E+00	0.00E+00	0.00E+00
	5700000000	8.60E-02	-1.44E-01	6.59E-01	-2.74E-01	0.00E+00	0.00E+00	0.00E+00	0.00E+00
	5750000000	1.23E-01	-2.27E-01	7.11E-01	-1.08E-01	0.00E+00	0.00E+00	0.00E+00	0.00E+00
	5800000000	5.70E-02	-3.21E-01	7.31E-01	5.62E-02	0.00E+00	0.00E+00	0.00E+00	0.00E+00
	5850000000	-5.94E-02	-3.17E-01	7.00E-01	2.21E-01	0.00E+00	0.00E+00	0.00E+00	0.00E+00
	5900000000	-8.14E-02	-2.23E-01	6.57E-01	3.85E-01	0.00E+00	0.00E+00	0.00E+00	0.00E+00
	5950000000	-1.06E-02	-2.35E-01	5.91E-01	4.97E-01	0.00E+00	0.00E+00	0.00E+00	0.00E+00
	6000000000	-1.24E-01	-2.76E-01	7.42E-01	4.21E-02	0.00E+00	0.00E+00	0.00E+00	0.00E+00
