! NanoVNA-App									
! Date: 2024-03-21 00:08:20									
! Start: 1GHz Stop: 6GHz Points: 101									
! S-Parameter data: F S11 S21 S12 S22									
# Hz S RI R 50									
!	Frequency	S11_Real	S11_Imag	S21_Real	S21_Imag	S12_Real	S12_Imag	S22_Real	S22_Imag
	1000000000	1.22E-01	-2.32E-02	-5.56E-01	-8.78E-01	0.00E+00	0.00E+00	0.00E+00	0.00E+00
	1050000000	5.26E-02	-2.26E-02	-3.75E-01	-9.65E-01	0.00E+00	0.00E+00	0.00E+00	0.00E+00
	1100000000	4.99E-02	-1.10E-02	-1.68E-01	-1.02E+00	0.00E+00	0.00E+00	0.00E+00	0.00E+00
	1150000000	3.03E-02	-4.66E-02	3.70E-02	-1.03E+00	0.00E+00	0.00E+00	0.00E+00	0.00E+00
	1200000000	-4.99E-02	-3.67E-02	2.43E-01	-9.90E-01	0.00E+00	0.00E+00	0.00E+00	0.00E+00
	1250000000	-7.77E-02	6.62E-02	4.49E-01	-9.10E-01	0.00E+00	0.00E+00	0.00E+00	0.00E+00
	1300000000	1.50E-02	1.35E-01	6.31E-01	-8.02E-01	0.00E+00	0.00E+00	0.00E+00	0.00E+00
	1350000000	1.01E-01	6.58E-02	7.72E-01	-6.55E-01	0.00E+00	0.00E+00	0.00E+00	0.00E+00
	1400000000	7.31E-02	4.90E-03	9.02E-01	-4.82E-01	0.00E+00	0.00E+00	0.00E+00	0.00E+00
	1450000000	1.77E-02	2.25E-02	9.75E-01	-3.00E-01	0.00E+00	0.00E+00	0.00E+00	0.00E+00
	1500000000	5.28E-02	6.45E-02	1.00E+00	-1.02E-01	0.00E+00	0.00E+00	0.00E+00	0.00E+00
	1550000000	9.64E-02	6.51E-03	9.92E-01	1.02E-01	0.00E+00	0.00E+00	0.00E+00	0.00E+00
	1600000000	1.41E-02	-5.69E-02	9.45E-01	2.95E-01	0.00E+00	0.00E+00	0.00E+00	0.00E+00
	1650000000	-9.25E-02	3.70E-02	8.59E-01	4.63E-01	0.00E+00	0.00E+00	0.00E+00	0.00E+00
	1700000000	-2.45E-02	1.96E-01	7.31E-01	6.07E-01	0.00E+00	0.00E+00	0.00E+00	0.00E+00
	1750000000	1.61E-01	1.97E-01	5.74E-01	7.39E-01	0.00E+00	0.00E+00	0.00E+00	0.00E+00
	1800000000	2.37E-01	4.15E-02	4.24E-01	8.46E-01	0.00E+00	0.00E+00	0.00E+00	0.00E+00
	1850000000	1.53E-01	-7.24E-02	2.67E-01	9.01E-01	0.00E+00	0.00E+00	0.00E+00	0.00E+00
	1900000000	6.42E-02	-5.54E-02	1.26E-01	9.15E-01	0.00E+00	0.00E+00	0.00E+00	0.00E+00
	1950000000	5.30E-02	-2.09E-02	7.77E-03	8.93E-01	0.00E+00	0.00E+00	0.00E+00	0.00E+00
	2000000000	7.51E-02	-2.08E-02	-4.96E-02	8.11E-01	0.00E+00	0.00E+00	0.00E+00	0.00E+00
	2050000000	6.11E-02	-1.90E-01	-3.98E-02	5.64E-01	0.00E+00	0.00E+00	0.00E+00	0.00E+00
	2100000000	-3.98E-01	-4.40E-02	-2.78E-01	2.03E-01	0.00E+00	0.00E+00	0.00E+00	0.00E+00
	2150000000	-1.95E-01	4.67E-01	-4.99E-01	6.50E-02	0.00E+00	0.00E+00	0.00E+00	0.00E+00
	2200000000	2.62E-01	4.84E-01	-6.02E-01	-5.23E-02	0.00E+00	0.00E+00	0.00E+00	0.00E+00
	2250000000	5.12E-01	1.82E-01	-6.38E-01	-1.63E-01	0.00E+00	0.00E+00	0.00E+00	0.00E+00
	2300000000	4.63E-01	-1.61E-01	-6.12E-01	-2.71E-01	0.00E+00	0.00E+00	0.00E+00	0.00E+00
	2350000000	2.15E-01	-3.50E-01	-5.45E-01	-3.80E-01	0.00E+00	0.00E+00	0.00E+00	0.00E+00
	2400000000	-7.45E-02	-3.17E-01	-4.59E-01	-4.76E-01	0.00E+00	0.00E+00	0.00E+00	0.00E+00
	2450000000	-2.40E-01	-8.71E-02	-3.70E-01	-5.36E-01	0.00E+00	0.00E+00	0.00E+00	0.00E+00
	2500000000	-1.29E-01	1.30E-01	-3.06E-01	-5.05E-01	0.00E+00	0.00E+00	0.00E+00	0.00E+00
	2550000000	-1.65E-01	1.35E-01	-3.55E-02	-3.42E-01	0.00E+00	0.00E+00	0.00E+00	0.00E+00
	2600000000	3.94E-02	3.76E-01	2.12E-01	-4.03E-01	0.00E+00	0.00E+00	0.00E+00	0.00E+00
	2650000000	3.37E-01	2.68E-01	3.56E-01	-3.82E-01	0.00E+00	0.00E+00	0.00E+00	0.00E+00
	2700000000	4.11E-01	-1.39E-02	4.81E-01	-3.07E-01	0.00E+00	0.00E+00	0.00E+00	0.00E+00
	2750000000	2.61E-01	-2.19E-01	5.91E-01	-1.95E-01	0.00E+00	0.00E+00	0.00E+00	0.00E+00
	2800000000	4.35E-02	-2.27E-01	6.75E-01	-7.40E-02	0.00E+00	0.00E+00	0.00E+00	0.00E+00
	2850000000	-7.14E-02	-1.02E-01	7.25E-01	4.78E-02	0.00E+00	0.00E+00	0.00E+00	0.00E+00
	2900000000	-5.50E-02	3.23E-02	7.09E-01	1.72E-01	0.00E+00	0.00E+00	0.00E+00	0.00E+00
	2950000000	1.01E-02	8.36E-02	6.33E-01	3.42E-01	0.00E+00	0.00E+00	0.00E+00	0.00E+00
	3000000000	1.07E-01	1.32E-01	5.91E-01	4.99E-01	0.00E+00	0.00E+00	0.00E+00	0.00E+00
	3050000000	2.21E-01	6.52E-02	4.95E-01	6.14E-01	0.00E+00	0.00E+00	0.00E+00	0.00E+00
	3100000000	2.34E-01	-6.59E-02	3.64E-01	7.24E-01	0.00E+00	0.00E+00	0.00E+00	0.00E+00
	3150000000	1.40E-01	-1.46E-01	2.36E-01	8.10E-01	0.00E+00	0.00E+00	0.00E+00	0.00E+00
	3200000000	4.26E-02	-1.14E-01	1.01E-01	8.36E-01	0.00E+00	0.00E+00	0.00E+00	0.00E+00
	3250000000	2.36E-02	-3.59E-02	-6.48E-02	8.26E-01	0.00E+00	0.00E+00	0.00E+00	0.00E+00
	3300000000	5.81E-02	8.72E-03	-2.25E-01	7.94E-01	0.00E+00	0.00E+00	0.00E+00	0.00E+00
	3350000000	8.96E-02	1.66E-02	-3.70E-01	7.29E-01	0.00E+00	0.00E+00	0.00E+00	0.00E+00
	3400000000	9.50E-02	3.14E-02	-4.83E-01	6.49E-01	0.00E+00	0.00E+00	0.00E+00	0.00E+00
	3450000000	1.84E-01	9.61E-02	-5.09E-01	5.09E-01	0.00E+00	0.00E+00	0.00E+00	0.00E+00
	3500000000	2.77E-01	-5.79E-03	-5.71E-01	2.82E-01	0.00E+00	0.00E+00	0.00E+00	0.00E+00
	3550000000	2.70E-01	-1.49E-01	-6.43E-01	3.70E-02	0.00E+00	0.00E+00	0.00E+00	0.00E+00
	3600000000	1.52E-01	-1.98E-01	-7.13E-01	-1.34E-01	0.00E+00	0.00E+00	0.00E+00	0.00E+00
	3650000000	7.66E-02	-1.75E-01	-7.04E-01	-2.94E-01	0.00E+00	0.00E+00	0.00E+00	0.00E+00
	3700000000	1.99E-02	-1.36E-01	-6.51E-01	-4.67E-01	0.00E+00	0.00E+00	0.00E+00	0.00E+00
	3750000000	-1.67E-02	-6.02E-02	-5.82E-01	-6.16E-01	0.00E+00	0.00E+00	0.00E+00	0.00E+00
	3800000000	1.63E-02	2.70E-02	-4.73E-01	-7.18E-01	0.00E+00	0.00E+00	0.00E+00	0.00E+00
	3850000000	8.50E-02	4.32E-02	-3.07E-01	-7.94E-01	0.00E+00	0.00E+00	0.00E+00	0.00E+00
	3900000000	1.02E-01	3.67E-02	-1.31E-01	-8.54E-01	0.00E+00	0.00E+00	0.00E+00	0.00E+00
	3950000000	1.39E-01	8.35E-02	3.49E-02	-8.54E-01	0.00E+00	0.00E+00	0.00E+00	0.00E+00
	4000000000	2.72E-01	8.01E-02	2.41E-01	-8.04E-01	0.00E+00	0.00E+00	0.00E+00	0.00E+00
	4050000000	3.78E-01	-8.02E-02	4.44E-01	-7.56E-01	0.00E+00	0.00E+00	0.00E+00	0.00E+00
	4100000000	3.06E-01	-2.93E-01	5.92E-01	-6.78E-01	0.00E+00	0.00E+00	0.00E+00	0.00E+00
	4150000000	8.77E-02	-3.75E-01	7.18E-01	-5.34E-01	0.00E+00	0.00E+00	0.00E+00	0.00E+00
	4200000000	-9.14E-02	-2.72E-01	8.48E-01	-3.80E-01	0.00E+00	0.00E+00	0.00E+00	0.00E+00
	4250000000	-1.34E-01	-1.35E-01	9.10E-01	-2.38E-01	0.00E+00	0.00E+00	0.00E+00	0.00E+00
	4300000000	-1.50E-01	-3.31E-02	9.12E-01	-5.14E-02	0.00E+00	0.00E+00	0.00E+00	0.00E+00
	4350000000	-1.24E-01	1.38E-01	8.96E-01	1.31E-01	0.00E+00	0.00E+00	0.00E+00	0.00E+00
	4400000000	9.24E-02	2.81E-01	8.18E-01	2.98E-01	0.00E+00	0.00E+00	0.00E+00	0.00E+00
	4450000000	3.79E-01	1.73E-01	6.90E-01	4.72E-01	0.00E+00	0.00E+00	0.00E+00	0.00E+00
	4500000000	4.68E-01	-1.18E-01	5.50E-01	6.36E-01	0.00E+00	0.00E+00	0.00E+00	0.00E+00
	4550000000	3.14E-01	-3.44E-01	3.85E-01	7.41E-01	0.00E+00	0.00E+00	0.00E+00	0.00E+00
	4600000000	1.09E-01	-3.52E-01	1.82E-01	8.30E-01	0.00E+00	0.00E+00	0.00E+00	0.00E+00
	4650000000	3.70E-02	-3.06E-01	-1.78E-02	8.69E-01	0.00E+00	0.00E+00	0.00E+00	0.00E+00
	4700000000	-6.79E-02	-2.41E-01	-2.43E-01	8.84E-01	0.00E+00	0.00E+00	0.00E+00	0.00E+00
	4750000000	-1.09E-01	-1.67E-01	-4.29E-01	8.17E-01	0.00E+00	0.00E+00	0.00E+00	0.00E+00
	4800000000	-1.33E-01	3.65E-04	-6.87E-01	7.34E-01	0.00E+00	0.00E+00	0.00E+00	0.00E+00
	4850000000	5.43E-02	1.35E-01	-9.25E-01	7.10E-01	0.00E+00	0.00E+00	0.00E+00	0.00E+00
	4900000000	2.50E-01	7.57E-03	-1.03E+00	6.75E-01	0.00E+00	0.00E+00	0.00E+00	0.00E+00
	4950000000	1.96E-01	-1.87E-01	-1.04E+00	5.42E-01	0.00E+00	0.00E+00	0.00E+00	0.00E+00
	5000000000	2.10E-02	-1.64E-01	-1.06E+00	3.54E-01	0.00E+00	0.00E+00	0.00E+00	0.00E+00
	5050000000	5.13E-02	9.07E-03	-1.08E+00	6.82E-02	0.00E+00	0.00E+00	0.00E+00	0.00E+00
	5100000000	2.49E-01	-2.12E-02	-1.08E+00	-3.19E-02	0.00E+00	0.00E+00	0.00E+00	0.00E+00
	5150000000	2.71E-01	-2.42E-01	-9.89E-01	-2.00E-01	0.00E+00	0.00E+00	0.00E+00	0.00E+00
	5200000000	7.01E-02	-3.47E-01	-8.69E-01	-3.75E-01	0.00E+00	0.00E+00	0.00E+00	0.00E+00
	5250000000	-7.73E-02	-2.32E-01	-7.41E-01	-5.44E-01	0.00E+00	0.00E+00	0.00E+00	0.00E+00
	5300000000	-3.76E-02	-1.42E-01	-5.99E-01	-6.84E-01	0.00E+00	0.00E+00	0.00E+00	0.00E+00
	5350000000	-5.37E-02	-1.85E-01	-4.52E-01	-7.44E-01	0.00E+00	0.00E+00	0.00E+00	0.00E+00
	5400000000	-1.58E-01	-1.11E-01	-2.41E-01	-7.96E-01	0.00E+00	0.00E+00	0.00E+00	0.00E+00
	5450000000	-9.95E-02	7.02E-02	-6.21E-02	-8.44E-01	0.00E+00	0.00E+00	0.00E+00	0.00E+00
	5500000000	1.23E-01	6.58E-02	7.33E-02	-8.06E-01	0.00E+00	0.00E+00	0.00E+00	0.00E+00
	5550000000	1.83E-01	-1.29E-01	2.40E-01	-6.91E-01	0.00E+00	0.00E+00	0.00E+00	0.00E+00
	5600000000	4.55E-02	-2.02E-01	4.02E-01	-5.58E-01	0.00E+00	0.00E+00	0.00E+00	0.00E+00
	5650000000	3.60E-02	-1.35E-01	5.50E-01	-4.11E-01	0.00E+00	0.00E+00	0.00E+00	0.00E+00
	5700000000	8.63E-02	-1.42E-01	6.61E-01	-2.73E-01	0.00E+00	0.00E+00	0.00E+00	0.00E+00
	5750000000	1.23E-01	-2.27E-01	7.13E-01	-1.10E-01	0.00E+00	0.00E+00	0.00E+00	0.00E+00
	5800000000	5.76E-02	-3.23E-01	7.33E-01	5.38E-02	0.00E+00	0.00E+00	0.00E+00	0.00E+00
	5850000000	-6.03E-02	-3.20E-01	7.02E-01	2.22E-01	0.00E+00	0.00E+00	0.00E+00	0.00E+00
	5900000000	-8.44E-02	-2.25E-01	6.59E-01	3.85E-01	0.00E+00	0.00E+00	0.00E+00	0.00E+00
	5950000000	-1.20E-02	-2.34E-01	5.91E-01	5.02E-01	0.00E+00	0.00E+00	0.00E+00	0.00E+00
	6000000000	-1.23E-01	-2.75E-01	7.45E-01	4.47E-02	0.00E+00	0.00E+00	0.00E+00	0.00E+00
