! NanoVNA-App									
! Date: 2024-03-21 00:21:33									
! Start: 1GHz Stop: 6GHz Points: 101									
! S-Parameter data: F S11 S21 S12 S22									
# Hz S RI R 50									
!	Frequency	S11_Real	S11_Imag	S21_Real	S21_Imag	S12_Real	S12_Imag	S22_Real	S22_Imag
	1000000000	1.22E-01	-2.31E-02	-5.56E-01	-8.78E-01	0.00E+00	0.00E+00	0.00E+00	0.00E+00
	1050000000	5.25E-02	-2.26E-02	-3.75E-01	-9.65E-01	0.00E+00	0.00E+00	0.00E+00	0.00E+00
	1100000000	4.99E-02	-1.11E-02	-1.68E-01	-1.02E+00	0.00E+00	0.00E+00	0.00E+00	0.00E+00
	1150000000	3.01E-02	-4.67E-02	3.66E-02	-1.03E+00	0.00E+00	0.00E+00	0.00E+00	0.00E+00
	1200000000	-5.03E-02	-3.67E-02	2.44E-01	-9.89E-01	0.00E+00	0.00E+00	0.00E+00	0.00E+00
	1250000000	-7.80E-02	6.64E-02	4.49E-01	-9.10E-01	0.00E+00	0.00E+00	0.00E+00	0.00E+00
	1300000000	1.50E-02	1.35E-01	6.31E-01	-8.02E-01	0.00E+00	0.00E+00	0.00E+00	0.00E+00
	1350000000	1.01E-01	6.57E-02	7.72E-01	-6.54E-01	0.00E+00	0.00E+00	0.00E+00	0.00E+00
	1400000000	7.29E-02	5.06E-03	9.02E-01	-4.83E-01	0.00E+00	0.00E+00	0.00E+00	0.00E+00
	1450000000	1.77E-02	2.25E-02	9.74E-01	-3.00E-01	0.00E+00	0.00E+00	0.00E+00	0.00E+00
	1500000000	5.28E-02	6.43E-02	1.00E+00	-1.02E-01	0.00E+00	0.00E+00	0.00E+00	0.00E+00
	1550000000	9.61E-02	5.98E-03	9.92E-01	1.01E-01	0.00E+00	0.00E+00	0.00E+00	0.00E+00
	1600000000	1.34E-02	-5.71E-02	9.44E-01	2.91E-01	0.00E+00	0.00E+00	0.00E+00	0.00E+00
	1650000000	-9.29E-02	3.77E-02	8.59E-01	4.61E-01	0.00E+00	0.00E+00	0.00E+00	0.00E+00
	1700000000	-2.40E-02	1.97E-01	7.32E-01	6.06E-01	0.00E+00	0.00E+00	0.00E+00	0.00E+00
	1750000000	1.61E-01	1.97E-01	5.74E-01	7.38E-01	0.00E+00	0.00E+00	0.00E+00	0.00E+00
	1800000000	2.37E-01	4.15E-02	4.23E-01	8.46E-01	0.00E+00	0.00E+00	0.00E+00	0.00E+00
	1850000000	1.53E-01	-7.30E-02	2.70E-01	9.00E-01	0.00E+00	0.00E+00	0.00E+00	0.00E+00
	1900000000	6.37E-02	-5.58E-02	1.23E-01	9.13E-01	0.00E+00	0.00E+00	0.00E+00	0.00E+00
	1950000000	5.24E-02	-2.05E-02	4.93E-03	8.93E-01	0.00E+00	0.00E+00	0.00E+00	0.00E+00
	2000000000	7.56E-02	-2.04E-02	-4.98E-02	8.10E-01	0.00E+00	0.00E+00	0.00E+00	0.00E+00
	2050000000	6.23E-02	-1.92E-01	-3.99E-02	5.64E-01	0.00E+00	0.00E+00	0.00E+00	0.00E+00
	2100000000	-3.99E-01	-4.43E-02	-2.79E-01	2.03E-01	0.00E+00	0.00E+00	0.00E+00	0.00E+00
	2150000000	-1.96E-01	4.67E-01	-4.99E-01	6.52E-02	0.00E+00	0.00E+00	0.00E+00	0.00E+00
	2200000000	2.62E-01	4.85E-01	-6.03E-01	-5.11E-02	0.00E+00	0.00E+00	0.00E+00	0.00E+00
	2250000000	5.12E-01	1.83E-01	-6.39E-01	-1.62E-01	0.00E+00	0.00E+00	0.00E+00	0.00E+00
	2300000000	4.64E-01	-1.61E-01	-6.13E-01	-2.70E-01	0.00E+00	0.00E+00	0.00E+00	0.00E+00
	2350000000	2.15E-01	-3.51E-01	-5.46E-01	-3.78E-01	0.00E+00	0.00E+00	0.00E+00	0.00E+00
	2400000000	-7.58E-02	-3.17E-01	-4.59E-01	-4.71E-01	0.00E+00	0.00E+00	0.00E+00	0.00E+00
	2450000000	-2.41E-01	-8.76E-02	-3.72E-01	-5.33E-01	0.00E+00	0.00E+00	0.00E+00	0.00E+00
	2500000000	-1.30E-01	1.29E-01	-3.08E-01	-5.01E-01	0.00E+00	0.00E+00	0.00E+00	0.00E+00
	2550000000	-1.66E-01	1.39E-01	-3.57E-02	-3.42E-01	0.00E+00	0.00E+00	0.00E+00	0.00E+00
	2600000000	4.11E-02	3.77E-01	2.11E-01	-4.02E-01	0.00E+00	0.00E+00	0.00E+00	0.00E+00
	2650000000	3.39E-01	2.67E-01	3.52E-01	-3.81E-01	0.00E+00	0.00E+00	0.00E+00	0.00E+00
	2700000000	4.11E-01	-1.28E-02	4.77E-01	-3.02E-01	0.00E+00	0.00E+00	0.00E+00	0.00E+00
	2750000000	2.61E-01	-2.20E-01	5.88E-01	-1.93E-01	0.00E+00	0.00E+00	0.00E+00	0.00E+00
	2800000000	4.17E-02	-2.33E-01	6.79E-01	-7.12E-02	0.00E+00	0.00E+00	0.00E+00	0.00E+00
	2850000000	-7.40E-02	-1.01E-01	7.22E-01	4.91E-02	0.00E+00	0.00E+00	0.00E+00	0.00E+00
	2900000000	-5.58E-02	3.44E-02	7.05E-01	1.74E-01	0.00E+00	0.00E+00	0.00E+00	0.00E+00
	2950000000	1.23E-02	8.48E-02	6.32E-01	3.46E-01	0.00E+00	0.00E+00	0.00E+00	0.00E+00
	3000000000	1.08E-01	1.31E-01	5.88E-01	4.99E-01	0.00E+00	0.00E+00	0.00E+00	0.00E+00
	3050000000	2.21E-01	6.45E-02	4.92E-01	6.16E-01	0.00E+00	0.00E+00	0.00E+00	0.00E+00
	3100000000	2.35E-01	-6.73E-02	3.60E-01	7.26E-01	0.00E+00	0.00E+00	0.00E+00	0.00E+00
	3150000000	1.40E-01	-1.47E-01	2.35E-01	8.11E-01	0.00E+00	0.00E+00	0.00E+00	0.00E+00
	3200000000	4.13E-02	-1.14E-01	9.80E-02	8.37E-01	0.00E+00	0.00E+00	0.00E+00	0.00E+00
	3250000000	2.25E-02	-3.46E-02	-6.77E-02	8.27E-01	0.00E+00	0.00E+00	0.00E+00	0.00E+00
	3300000000	5.80E-02	1.06E-02	-2.25E-01	7.94E-01	0.00E+00	0.00E+00	0.00E+00	0.00E+00
	3350000000	9.11E-02	1.68E-02	-3.71E-01	7.30E-01	0.00E+00	0.00E+00	0.00E+00	0.00E+00
	3400000000	9.59E-02	3.02E-02	-4.83E-01	6.50E-01	0.00E+00	0.00E+00	0.00E+00	0.00E+00
	3450000000	1.84E-01	9.58E-02	-5.09E-01	5.06E-01	0.00E+00	0.00E+00	0.00E+00	0.00E+00
	3500000000	2.78E-01	-5.77E-03	-5.72E-01	2.77E-01	0.00E+00	0.00E+00	0.00E+00	0.00E+00
	3550000000	2.69E-01	-1.52E-01	-6.45E-01	3.11E-02	0.00E+00	0.00E+00	0.00E+00	0.00E+00
	3600000000	1.49E-01	-1.97E-01	-7.16E-01	-1.42E-01	0.00E+00	0.00E+00	0.00E+00	0.00E+00
	3650000000	7.64E-02	-1.71E-01	-7.08E-01	-2.99E-01	0.00E+00	0.00E+00	0.00E+00	0.00E+00
	3700000000	2.27E-02	-1.35E-01	-6.54E-01	-4.71E-01	0.00E+00	0.00E+00	0.00E+00	0.00E+00
	3750000000	-1.48E-02	-6.22E-02	-5.83E-01	-6.22E-01	0.00E+00	0.00E+00	0.00E+00	0.00E+00
	3800000000	1.55E-02	2.33E-02	-4.74E-01	-7.22E-01	0.00E+00	0.00E+00	0.00E+00	0.00E+00
	3850000000	8.24E-02	4.16E-02	-3.12E-01	-7.96E-01	0.00E+00	0.00E+00	0.00E+00	0.00E+00
	3900000000	9.93E-02	3.75E-02	-1.32E-01	-8.57E-01	0.00E+00	0.00E+00	0.00E+00	0.00E+00
	3950000000	1.39E-01	8.64E-02	3.28E-02	-8.56E-01	0.00E+00	0.00E+00	0.00E+00	0.00E+00
	4000000000	2.75E-01	8.11E-02	2.35E-01	-8.07E-01	0.00E+00	0.00E+00	0.00E+00	0.00E+00
	4050000000	3.81E-01	-8.15E-02	4.44E-01	-7.57E-01	0.00E+00	0.00E+00	0.00E+00	0.00E+00
	4100000000	3.06E-01	-2.96E-01	5.88E-01	-6.81E-01	0.00E+00	0.00E+00	0.00E+00	0.00E+00
	4150000000	8.66E-02	-3.77E-01	7.17E-01	-5.35E-01	0.00E+00	0.00E+00	0.00E+00	0.00E+00
	4200000000	-9.24E-02	-2.73E-01	8.49E-01	-3.79E-01	0.00E+00	0.00E+00	0.00E+00	0.00E+00
	4250000000	-1.35E-01	-1.34E-01	9.10E-01	-2.38E-01	0.00E+00	0.00E+00	0.00E+00	0.00E+00
	4300000000	-1.50E-01	-3.19E-02	9.13E-01	-4.82E-02	0.00E+00	0.00E+00	0.00E+00	0.00E+00
	4350000000	-1.23E-01	1.39E-01	8.97E-01	1.31E-01	0.00E+00	0.00E+00	0.00E+00	0.00E+00
	4400000000	9.49E-02	2.81E-01	8.20E-01	2.94E-01	0.00E+00	0.00E+00	0.00E+00	0.00E+00
	4450000000	3.80E-01	1.73E-01	6.90E-01	4.71E-01	0.00E+00	0.00E+00	0.00E+00	0.00E+00
	4500000000	4.68E-01	-1.21E-01	5.55E-01	6.33E-01	0.00E+00	0.00E+00	0.00E+00	0.00E+00
	4550000000	3.13E-01	-3.45E-01	3.87E-01	7.40E-01	0.00E+00	0.00E+00	0.00E+00	0.00E+00
	4600000000	1.07E-01	-3.53E-01	1.80E-01	8.30E-01	0.00E+00	0.00E+00	0.00E+00	0.00E+00
	4650000000	3.45E-02	-3.04E-01	-1.51E-02	8.70E-01	0.00E+00	0.00E+00	0.00E+00	0.00E+00
	4700000000	-6.62E-02	-2.41E-01	-2.48E-01	8.83E-01	0.00E+00	0.00E+00	0.00E+00	0.00E+00
	4750000000	-1.08E-01	-1.66E-01	-4.27E-01	8.19E-01	0.00E+00	0.00E+00	0.00E+00	0.00E+00
	4800000000	-1.32E-01	-3.14E-04	-6.86E-01	7.35E-01	0.00E+00	0.00E+00	0.00E+00	0.00E+00
	4850000000	5.60E-02	1.35E-01	-9.22E-01	7.13E-01	0.00E+00	0.00E+00	0.00E+00	0.00E+00
	4900000000	2.51E-01	5.85E-03	-1.03E+00	6.77E-01	0.00E+00	0.00E+00	0.00E+00	0.00E+00
	4950000000	1.96E-01	-1.90E-01	-1.04E+00	5.44E-01	0.00E+00	0.00E+00	0.00E+00	0.00E+00
	5000000000	1.88E-02	-1.65E-01	-1.06E+00	3.53E-01	0.00E+00	0.00E+00	0.00E+00	0.00E+00
	5050000000	4.96E-02	1.04E-02	-1.08E+00	6.29E-02	0.00E+00	0.00E+00	0.00E+00	0.00E+00
	5100000000	2.50E-01	-1.87E-02	-1.08E+00	-2.75E-02	0.00E+00	0.00E+00	0.00E+00	0.00E+00
	5150000000	2.72E-01	-2.41E-01	-9.91E-01	-1.99E-01	0.00E+00	0.00E+00	0.00E+00	0.00E+00
	5200000000	7.10E-02	-3.47E-01	-8.72E-01	-3.71E-01	0.00E+00	0.00E+00	0.00E+00	0.00E+00
	5250000000	-7.58E-02	-2.34E-01	-7.45E-01	-5.42E-01	0.00E+00	0.00E+00	0.00E+00	0.00E+00
	5300000000	-3.64E-02	-1.46E-01	-6.01E-01	-6.84E-01	0.00E+00	0.00E+00	0.00E+00	0.00E+00
	5350000000	-5.50E-02	-1.85E-01	-4.53E-01	-7.41E-01	0.00E+00	0.00E+00	0.00E+00	0.00E+00
	5400000000	-1.60E-01	-1.11E-01	-2.42E-01	-7.95E-01	0.00E+00	0.00E+00	0.00E+00	0.00E+00
	5450000000	-9.99E-02	7.20E-02	-6.49E-02	-8.43E-01	0.00E+00	0.00E+00	0.00E+00	0.00E+00
	5500000000	1.24E-01	6.60E-02	7.02E-02	-8.06E-01	0.00E+00	0.00E+00	0.00E+00	0.00E+00
	5550000000	1.85E-01	-1.29E-01	2.30E-01	-6.98E-01	0.00E+00	0.00E+00	0.00E+00	0.00E+00
	5600000000	4.40E-02	-2.02E-01	3.98E-01	-5.60E-01	0.00E+00	0.00E+00	0.00E+00	0.00E+00
	5650000000	3.78E-02	-1.37E-01	5.50E-01	-4.11E-01	0.00E+00	0.00E+00	0.00E+00	0.00E+00
	5700000000	8.63E-02	-1.44E-01	6.60E-01	-2.74E-01	0.00E+00	0.00E+00	0.00E+00	0.00E+00
	5750000000	1.25E-01	-2.28E-01	7.12E-01	-1.12E-01	0.00E+00	0.00E+00	0.00E+00	0.00E+00
	5800000000	5.80E-02	-3.23E-01	7.33E-01	5.65E-02	0.00E+00	0.00E+00	0.00E+00	0.00E+00
	5850000000	-6.33E-02	-3.19E-01	7.02E-01	2.16E-01	0.00E+00	0.00E+00	0.00E+00	0.00E+00
	5900000000	-8.35E-02	-2.24E-01	6.59E-01	3.86E-01	0.00E+00	0.00E+00	0.00E+00	0.00E+00
	5950000000	-1.21E-02	-2.34E-01	5.91E-01	5.00E-01	0.00E+00	0.00E+00	0.00E+00	0.00E+00
	6000000000	-1.22E-01	-2.75E-01	7.45E-01	4.39E-02	0.00E+00	0.00E+00	0.00E+00	0.00E+00
