! NanoVNA-App									
! Date: 2024-03-20 20:24:14									
! Start: 1GHz Stop: 6GHz Points: 101									
! S-Parameter data: F S11 S21 S12 S22									
# Hz S RI R 50									
!	Frequency	S11_Real	S11_Imag	S21_Real	S21_Imag	S12_Real	S12_Imag	S22_Real	S22_Imag
	1000000000	1.24E-01	-2.41E-02	-5.53E-01	-8.79E-01	0.00E+00	0.00E+00	0.00E+00	0.00E+00
	1050000000	5.34E-02	-2.37E-02	-3.71E-01	-9.67E-01	0.00E+00	0.00E+00	0.00E+00	0.00E+00
	1100000000	5.01E-02	-1.08E-02	-1.63E-01	-1.02E+00	0.00E+00	0.00E+00	0.00E+00	0.00E+00
	1150000000	3.16E-02	-4.54E-02	3.99E-02	-1.03E+00	0.00E+00	0.00E+00	0.00E+00	0.00E+00
	1200000000	-4.78E-02	-3.61E-02	2.48E-01	-9.89E-01	0.00E+00	0.00E+00	0.00E+00	0.00E+00
	1250000000	-7.61E-02	6.66E-02	4.53E-01	-9.08E-01	0.00E+00	0.00E+00	0.00E+00	0.00E+00
	1300000000	1.66E-02	1.36E-01	6.33E-01	-7.99E-01	0.00E+00	0.00E+00	0.00E+00	0.00E+00
	1350000000	1.03E-01	6.63E-02	7.73E-01	-6.50E-01	0.00E+00	0.00E+00	0.00E+00	0.00E+00
	1400000000	7.62E-02	5.11E-03	9.04E-01	-4.78E-01	0.00E+00	0.00E+00	0.00E+00	0.00E+00
	1450000000	1.96E-02	2.07E-02	9.75E-01	-2.96E-01	0.00E+00	0.00E+00	0.00E+00	0.00E+00
	1500000000	5.21E-02	6.31E-02	1.00E+00	-9.84E-02	0.00E+00	0.00E+00	0.00E+00	0.00E+00
	1550000000	9.47E-02	7.28E-03	9.90E-01	1.04E-01	0.00E+00	0.00E+00	0.00E+00	0.00E+00
	1600000000	1.28E-02	-5.36E-02	9.42E-01	2.94E-01	0.00E+00	0.00E+00	0.00E+00	0.00E+00
	1650000000	-9.11E-02	4.21E-02	8.55E-01	4.63E-01	0.00E+00	0.00E+00	0.00E+00	0.00E+00
	1700000000	-2.04E-02	2.00E-01	7.25E-01	6.07E-01	0.00E+00	0.00E+00	0.00E+00	0.00E+00
	1750000000	1.66E-01	1.98E-01	5.69E-01	7.37E-01	0.00E+00	0.00E+00	0.00E+00	0.00E+00
	1800000000	2.41E-01	3.89E-02	4.18E-01	8.45E-01	0.00E+00	0.00E+00	0.00E+00	0.00E+00
	1850000000	1.53E-01	-7.75E-02	2.64E-01	8.99E-01	0.00E+00	0.00E+00	0.00E+00	0.00E+00
	1900000000	5.91E-02	-5.80E-02	1.22E-01	9.12E-01	0.00E+00	0.00E+00	0.00E+00	0.00E+00
	1950000000	4.75E-02	-1.80E-02	3.16E-03	8.88E-01	0.00E+00	0.00E+00	0.00E+00	0.00E+00
	2000000000	7.29E-02	-1.58E-02	-5.34E-02	8.05E-01	0.00E+00	0.00E+00	0.00E+00	0.00E+00
	2050000000	5.87E-02	-1.85E-01	-3.89E-02	5.62E-01	0.00E+00	0.00E+00	0.00E+00	0.00E+00
	2100000000	-3.87E-01	-3.50E-02	-2.78E-01	1.98E-01	0.00E+00	0.00E+00	0.00E+00	0.00E+00
	2150000000	-1.85E-01	4.68E-01	-4.92E-01	6.11E-02	0.00E+00	0.00E+00	0.00E+00	0.00E+00
	2200000000	2.68E-01	4.78E-01	-5.91E-01	-5.67E-02	0.00E+00	0.00E+00	0.00E+00	0.00E+00
	2250000000	5.14E-01	1.73E-01	-6.26E-01	-1.66E-01	0.00E+00	0.00E+00	0.00E+00	0.00E+00
	2300000000	4.57E-01	-1.70E-01	-5.98E-01	-2.74E-01	0.00E+00	0.00E+00	0.00E+00	0.00E+00
	2350000000	2.00E-01	-3.49E-01	-5.26E-01	-3.82E-01	0.00E+00	0.00E+00	0.00E+00	0.00E+00
	2400000000	-8.75E-02	-3.04E-01	-4.40E-01	-4.74E-01	0.00E+00	0.00E+00	0.00E+00	0.00E+00
	2450000000	-2.38E-01	-6.79E-02	-3.51E-01	-5.34E-01	0.00E+00	0.00E+00	0.00E+00	0.00E+00
	2500000000	-1.15E-01	1.39E-01	-2.82E-01	-5.03E-01	0.00E+00	0.00E+00	0.00E+00	0.00E+00
	2550000000	-1.44E-01	1.28E-01	-2.23E-02	-3.37E-01	0.00E+00	0.00E+00	0.00E+00	0.00E+00
	2600000000	4.31E-02	3.61E-01	2.36E-01	-3.92E-01	0.00E+00	0.00E+00	0.00E+00	0.00E+00
	2650000000	3.30E-01	2.56E-01	3.80E-01	-3.73E-01	0.00E+00	0.00E+00	0.00E+00	0.00E+00
	2700000000	3.98E-01	-1.58E-02	5.03E-01	-2.94E-01	0.00E+00	0.00E+00	0.00E+00	0.00E+00
	2750000000	2.48E-01	-2.10E-01	6.08E-01	-1.83E-01	0.00E+00	0.00E+00	0.00E+00	0.00E+00
	2800000000	4.24E-02	-2.10E-01	6.88E-01	-5.78E-02	0.00E+00	0.00E+00	0.00E+00	0.00E+00
	2850000000	-6.05E-02	-8.88E-02	7.35E-01	6.12E-02	0.00E+00	0.00E+00	0.00E+00	0.00E+00
	2900000000	-3.95E-02	3.12E-02	7.16E-01	1.88E-01	0.00E+00	0.00E+00	0.00E+00	0.00E+00
	2950000000	1.77E-02	7.15E-02	6.38E-01	3.62E-01	0.00E+00	0.00E+00	0.00E+00	0.00E+00
	3000000000	1.02E-01	1.22E-01	5.92E-01	5.15E-01	0.00E+00	0.00E+00	0.00E+00	0.00E+00
	3050000000	2.13E-01	6.28E-02	4.93E-01	6.31E-01	0.00E+00	0.00E+00	0.00E+00	0.00E+00
	3100000000	2.27E-01	-6.34E-02	3.56E-01	7.39E-01	0.00E+00	0.00E+00	0.00E+00	0.00E+00
	3150000000	1.36E-01	-1.41E-01	2.26E-01	8.24E-01	0.00E+00	0.00E+00	0.00E+00	0.00E+00
	3200000000	4.17E-02	-1.07E-01	8.66E-02	8.49E-01	0.00E+00	0.00E+00	0.00E+00	0.00E+00
	3250000000	2.75E-02	-3.06E-02	-7.83E-02	8.37E-01	0.00E+00	0.00E+00	0.00E+00	0.00E+00
	3300000000	6.36E-02	9.61E-03	-2.41E-01	8.01E-01	0.00E+00	0.00E+00	0.00E+00	0.00E+00
	3350000000	9.27E-02	1.33E-02	-3.86E-01	7.35E-01	0.00E+00	0.00E+00	0.00E+00	0.00E+00
	3400000000	9.52E-02	2.76E-02	-4.98E-01	6.51E-01	0.00E+00	0.00E+00	0.00E+00	0.00E+00
	3450000000	1.84E-01	9.39E-02	-5.21E-01	5.05E-01	0.00E+00	0.00E+00	0.00E+00	0.00E+00
	3500000000	2.76E-01	-1.01E-02	-5.84E-01	2.70E-01	0.00E+00	0.00E+00	0.00E+00	0.00E+00
	3550000000	2.61E-01	-1.58E-01	-6.59E-01	1.98E-02	0.00E+00	0.00E+00	0.00E+00	0.00E+00
	3600000000	1.39E-01	-1.92E-01	-7.33E-01	-1.52E-01	0.00E+00	0.00E+00	0.00E+00	0.00E+00
	3650000000	7.61E-02	-1.61E-01	-7.21E-01	-3.11E-01	0.00E+00	0.00E+00	0.00E+00	0.00E+00
	3700000000	3.04E-02	-1.30E-01	-6.65E-01	-4.83E-01	0.00E+00	0.00E+00	0.00E+00	0.00E+00
	3750000000	-7.29E-03	-6.45E-02	-5.93E-01	-6.32E-01	0.00E+00	0.00E+00	0.00E+00	0.00E+00
	3800000000	2.02E-02	1.75E-02	-4.83E-01	-7.32E-01	0.00E+00	0.00E+00	0.00E+00	0.00E+00
	3850000000	8.14E-02	3.35E-02	-3.14E-01	-8.07E-01	0.00E+00	0.00E+00	0.00E+00	0.00E+00
	3900000000	9.41E-02	3.36E-02	-1.36E-01	-8.67E-01	0.00E+00	0.00E+00	0.00E+00	0.00E+00
	3950000000	1.32E-01	8.88E-02	3.35E-02	-8.65E-01	0.00E+00	0.00E+00	0.00E+00	0.00E+00
	4000000000	2.74E-01	8.74E-02	2.37E-01	-8.13E-01	0.00E+00	0.00E+00	0.00E+00	0.00E+00
	4050000000	3.84E-01	-7.77E-02	4.44E-01	-7.60E-01	0.00E+00	0.00E+00	0.00E+00	0.00E+00
	4100000000	3.11E-01	-2.95E-01	5.90E-01	-6.83E-01	0.00E+00	0.00E+00	0.00E+00	0.00E+00
	4150000000	9.03E-02	-3.80E-01	7.19E-01	-5.34E-01	0.00E+00	0.00E+00	0.00E+00	0.00E+00
	4200000000	-9.13E-02	-2.76E-01	8.49E-01	-3.75E-01	0.00E+00	0.00E+00	0.00E+00	0.00E+00
	4250000000	-1.37E-01	-1.35E-01	9.12E-01	-2.31E-01	0.00E+00	0.00E+00	0.00E+00	0.00E+00
	4300000000	-1.52E-01	-3.01E-02	9.14E-01	-4.48E-02	0.00E+00	0.00E+00	0.00E+00	0.00E+00
	4350000000	-1.24E-01	1.42E-01	8.96E-01	1.40E-01	0.00E+00	0.00E+00	0.00E+00	0.00E+00
	4400000000	9.57E-02	2.84E-01	8.18E-01	3.03E-01	0.00E+00	0.00E+00	0.00E+00	0.00E+00
	4450000000	3.82E-01	1.75E-01	6.87E-01	4.79E-01	0.00E+00	0.00E+00	0.00E+00	0.00E+00
	4500000000	4.71E-01	-1.19E-01	5.50E-01	6.39E-01	0.00E+00	0.00E+00	0.00E+00	0.00E+00
	4550000000	3.15E-01	-3.45E-01	3.81E-01	7.46E-01	0.00E+00	0.00E+00	0.00E+00	0.00E+00
	4600000000	1.08E-01	-3.54E-01	1.73E-01	8.35E-01	0.00E+00	0.00E+00	0.00E+00	0.00E+00
	4650000000	3.23E-02	-3.03E-01	-2.27E-02	8.75E-01	0.00E+00	0.00E+00	0.00E+00	0.00E+00
	4700000000	-7.14E-02	-2.39E-01	-2.55E-01	8.84E-01	0.00E+00	0.00E+00	0.00E+00	0.00E+00
	4750000000	-1.12E-01	-1.62E-01	-4.38E-01	8.19E-01	0.00E+00	0.00E+00	0.00E+00	0.00E+00
	4800000000	-1.35E-01	5.02E-03	-6.99E-01	7.34E-01	0.00E+00	0.00E+00	0.00E+00	0.00E+00
	4850000000	5.42E-02	1.40E-01	-9.37E-01	7.07E-01	0.00E+00	0.00E+00	0.00E+00	0.00E+00
	4900000000	2.52E-01	1.16E-02	-1.05E+00	6.66E-01	0.00E+00	0.00E+00	0.00E+00	0.00E+00
	4950000000	1.99E-01	-1.88E-01	-1.05E+00	5.36E-01	0.00E+00	0.00E+00	0.00E+00	0.00E+00
	5000000000	1.87E-02	-1.66E-01	-1.07E+00	3.45E-01	0.00E+00	0.00E+00	0.00E+00	0.00E+00
	5050000000	4.53E-02	8.89E-03	-1.09E+00	5.67E-02	0.00E+00	0.00E+00	0.00E+00	0.00E+00
	5100000000	2.45E-01	-1.77E-02	-1.09E+00	-4.51E-02	0.00E+00	0.00E+00	0.00E+00	0.00E+00
	5150000000	2.68E-01	-2.39E-01	-9.96E-01	-2.14E-01	0.00E+00	0.00E+00	0.00E+00	0.00E+00
	5200000000	6.79E-02	-3.45E-01	-8.73E-01	-3.86E-01	0.00E+00	0.00E+00	0.00E+00	0.00E+00
	5250000000	-7.80E-02	-2.31E-01	-7.42E-01	-5.58E-01	0.00E+00	0.00E+00	0.00E+00	0.00E+00
	5300000000	-3.96E-02	-1.41E-01	-6.00E-01	-6.94E-01	0.00E+00	0.00E+00	0.00E+00	0.00E+00
	5350000000	-5.52E-02	-1.85E-01	-4.47E-01	-7.54E-01	0.00E+00	0.00E+00	0.00E+00	0.00E+00
	5400000000	-1.61E-01	-1.13E-01	-2.29E-01	-8.05E-01	0.00E+00	0.00E+00	0.00E+00	0.00E+00
	5450000000	-1.04E-01	7.29E-02	-5.06E-02	-8.51E-01	0.00E+00	0.00E+00	0.00E+00	0.00E+00
	5500000000	1.19E-01	6.96E-02	8.00E-02	-8.12E-01	0.00E+00	0.00E+00	0.00E+00	0.00E+00
	5550000000	1.81E-01	-1.26E-01	2.51E-01	-6.94E-01	0.00E+00	0.00E+00	0.00E+00	0.00E+00
	5600000000	4.24E-02	-2.01E-01	4.11E-01	-5.57E-01	0.00E+00	0.00E+00	0.00E+00	0.00E+00
	5650000000	3.27E-02	-1.33E-01	5.59E-01	-4.05E-01	0.00E+00	0.00E+00	0.00E+00	0.00E+00
	5700000000	8.31E-02	-1.42E-01	6.69E-01	-2.66E-01	0.00E+00	0.00E+00	0.00E+00	0.00E+00
	5750000000	1.19E-01	-2.27E-01	7.18E-01	-1.03E-01	0.00E+00	0.00E+00	0.00E+00	0.00E+00
	5800000000	5.18E-02	-3.22E-01	7.37E-01	6.67E-02	0.00E+00	0.00E+00	0.00E+00	0.00E+00
	5850000000	-6.78E-02	-3.17E-01	7.04E-01	2.30E-01	0.00E+00	0.00E+00	0.00E+00	0.00E+00
	5900000000	-9.05E-02	-2.22E-01	6.57E-01	4.00E-01	0.00E+00	0.00E+00	0.00E+00	0.00E+00
	5950000000	-2.04E-02	-2.30E-01	5.90E-01	5.12E-01	0.00E+00	0.00E+00	0.00E+00	0.00E+00
	6000000000	-1.29E-01	-2.69E-01	7.49E-01	5.34E-02	0.00E+00	0.00E+00	0.00E+00	0.00E+00
