! NanoVNA-App
! Date: 2024-03-20 20:04:08
! Start: 1GHz Stop: 6GHz Points: 101
! S-Parameter data: F S11 S21 S12 S22
# Hz S RI R 50
!     Frequency           S11_Real           S11_Imag           S21_Real           S21_Imag           S12_Real           S12_Imag           S22_Real           S22_Imag
     1000000000    1.238532290e-01   -2.405371517e-02   -5.518117547e-01   -8.803124428e-01    0.000000000e+00    0.000000000e+00    0.000000000e+00    0.000000000e+00
     1050000000    5.369025469e-02   -2.357512340e-02   -3.706598282e-01   -9.662384391e-01    0.000000000e+00    0.000000000e+00    0.000000000e+00    0.000000000e+00
     1100000000    5.047466233e-02   -1.077762619e-02   -1.648102254e-01   -1.018868327e+00    0.000000000e+00    0.000000000e+00    0.000000000e+00    0.000000000e+00
     1150000000    3.215126693e-02   -4.540986195e-02    4.229073226e-02   -1.032490969e+00    0.000000000e+00    0.000000000e+00    0.000000000e+00    0.000000000e+00
     1200000000   -4.763691127e-02   -3.624867275e-02    2.487747520e-01   -9.883096218e-01    0.000000000e+00    0.000000000e+00    0.000000000e+00    0.000000000e+00
     1250000000   -7.606635243e-02    6.655800343e-02    4.526186287e-01   -9.074808955e-01    0.000000000e+00    0.000000000e+00    0.000000000e+00    0.000000000e+00
     1300000000    1.661273465e-02    1.361034960e-01    6.335756183e-01   -7.987234592e-01    0.000000000e+00    0.000000000e+00    0.000000000e+00    0.000000000e+00
     1350000000    1.031321436e-01    6.681873649e-02    7.741215825e-01   -6.494567394e-01    0.000000000e+00    0.000000000e+00    0.000000000e+00    0.000000000e+00
     1400000000    7.663311809e-02    5.215341225e-03    9.045069218e-01   -4.791064560e-01    0.000000000e+00    0.000000000e+00    0.000000000e+00    0.000000000e+00
     1450000000    1.983619668e-02    2.096663788e-02    9.747337699e-01   -2.961504459e-01    0.000000000e+00    0.000000000e+00    0.000000000e+00    0.000000000e+00
     1500000000    5.253124610e-02    6.357282400e-02    1.001410723e+00   -9.667056799e-02    0.000000000e+00    0.000000000e+00    0.000000000e+00    0.000000000e+00
     1550000000    9.500453621e-02    7.558429148e-03    9.901956320e-01    1.048581153e-01    0.000000000e+00    0.000000000e+00    0.000000000e+00    0.000000000e+00
     1600000000    1.305376552e-02   -5.406478792e-02    9.414036274e-01    2.947962582e-01    0.000000000e+00    0.000000000e+00    0.000000000e+00    0.000000000e+00
     1650000000   -9.173202515e-02    4.173691198e-02    8.553760052e-01    4.652515948e-01    0.000000000e+00    0.000000000e+00    0.000000000e+00    0.000000000e+00
     1700000000   -2.068266831e-02    2.001676559e-01    7.270761728e-01    6.076303124e-01    0.000000000e+00    0.000000000e+00    0.000000000e+00    0.000000000e+00
     1750000000    1.657810658e-01    1.988059133e-01    5.682473779e-01    7.381783128e-01    0.000000000e+00    0.000000000e+00    0.000000000e+00    0.000000000e+00
     1800000000    2.423991412e-01    3.882491589e-02    4.179892838e-01    8.450585604e-01    0.000000000e+00    0.000000000e+00    0.000000000e+00    0.000000000e+00
     1850000000    1.538376361e-01   -7.747652382e-02    2.627011538e-01    8.990463614e-01    0.000000000e+00    0.000000000e+00    0.000000000e+00    0.000000000e+00
     1900000000    6.002742797e-02   -5.907198042e-02    1.171156690e-01    9.130517244e-01    0.000000000e+00    0.000000000e+00    0.000000000e+00    0.000000000e+00
     1950000000    4.662267864e-02   -1.993099786e-02    2.492842730e-03    8.883470893e-01    0.000000000e+00    0.000000000e+00    0.000000000e+00    0.000000000e+00
     2000000000    6.838696450e-02   -1.521994919e-02   -5.620700493e-02    8.094095588e-01    0.000000000e+00    0.000000000e+00    0.000000000e+00    0.000000000e+00
     2050000000    6.397242844e-02   -1.740082055e-01   -4.038583860e-02    5.729085803e-01    0.000000000e+00    0.000000000e+00    0.000000000e+00    0.000000000e+00
     2100000000   -3.886821270e-01   -4.603876546e-02   -2.628460824e-01    2.019117922e-01    0.000000000e+00    0.000000000e+00    0.000000000e+00    0.000000000e+00
     2150000000   -1.910960078e-01    4.673391283e-01   -4.863060415e-01    5.788831785e-02    0.000000000e+00    0.000000000e+00    0.000000000e+00    0.000000000e+00
     2200000000    2.681517005e-01    4.816597700e-01   -5.887499452e-01   -5.738081411e-02    0.000000000e+00    0.000000000e+00    0.000000000e+00    0.000000000e+00
     2250000000    5.150059462e-01    1.749730408e-01   -6.231180429e-01   -1.685585827e-01    0.000000000e+00    0.000000000e+00    0.000000000e+00    0.000000000e+00
     2300000000    4.585064054e-01   -1.706525087e-01   -5.960757732e-01   -2.751739025e-01    0.000000000e+00    0.000000000e+00    0.000000000e+00    0.000000000e+00
     2350000000    2.005689740e-01   -3.505364656e-01   -5.243770480e-01   -3.837346733e-01    0.000000000e+00    0.000000000e+00    0.000000000e+00    0.000000000e+00
     2400000000   -8.811800927e-02   -3.048408031e-01   -4.385964870e-01   -4.743833244e-01    0.000000000e+00    0.000000000e+00    0.000000000e+00    0.000000000e+00
     2450000000   -2.385777831e-01   -6.768040359e-02   -3.488522172e-01   -5.340805054e-01    0.000000000e+00    0.000000000e+00    0.000000000e+00    0.000000000e+00
     2500000000   -1.141405106e-01    1.415077150e-01   -2.818646729e-01   -5.056131482e-01    0.000000000e+00    0.000000000e+00    0.000000000e+00    0.000000000e+00
     2550000000   -1.418632716e-01    1.207765937e-01   -2.135941386e-02   -3.293806016e-01    0.000000000e+00    0.000000000e+00    0.000000000e+00    0.000000000e+00
     2600000000    3.590360656e-02    3.637041748e-01    2.456774563e-01   -3.875975013e-01    0.000000000e+00    0.000000000e+00    0.000000000e+00    0.000000000e+00
     2650000000    3.308550119e-01    2.605591714e-01    3.878172934e-01   -3.748754561e-01    0.000000000e+00    0.000000000e+00    0.000000000e+00    0.000000000e+00
     2700000000    4.002065659e-01   -1.496378984e-02    5.080043674e-01   -2.966736555e-01    0.000000000e+00    0.000000000e+00    0.000000000e+00    0.000000000e+00
     2750000000    2.489581257e-01   -2.128376067e-01    6.139332652e-01   -1.874892265e-01    0.000000000e+00    0.000000000e+00    0.000000000e+00    0.000000000e+00
     2800000000    4.283719510e-02   -2.167565674e-01    6.999475360e-01   -6.072358415e-02    0.000000000e+00    0.000000000e+00    0.000000000e+00    0.000000000e+00
     2850000000   -6.130184233e-02   -9.107857943e-02    7.400047779e-01    5.848208815e-02    0.000000000e+00    0.000000000e+00    0.000000000e+00    0.000000000e+00
     2900000000   -4.173879325e-02    3.090400249e-02    7.195709944e-01    1.832164377e-01    0.000000000e+00    0.000000000e+00    0.000000000e+00    0.000000000e+00
     2950000000    1.585228369e-02    7.315738499e-02    6.374489069e-01    3.562738895e-01    0.000000000e+00    0.000000000e+00    0.000000000e+00    0.000000000e+00
     3000000000    1.026726440e-01    1.232748851e-01    5.939081311e-01    5.143570900e-01    0.000000000e+00    0.000000000e+00    0.000000000e+00    0.000000000e+00
     3050000000    2.137140334e-01    6.375384331e-02    4.920714200e-01    6.273753047e-01    0.000000000e+00    0.000000000e+00    0.000000000e+00    0.000000000e+00
     3100000000    2.285079211e-01   -6.380628794e-02    3.567532599e-01    7.369967103e-01    0.000000000e+00    0.000000000e+00    0.000000000e+00    0.000000000e+00
     3150000000    1.367889047e-01   -1.410401016e-01    2.271037698e-01    8.216714263e-01    0.000000000e+00    0.000000000e+00    0.000000000e+00    0.000000000e+00
     3200000000    4.226830229e-02   -1.077532396e-01    8.577618748e-02    8.471456170e-01    0.000000000e+00    0.000000000e+00    0.000000000e+00    0.000000000e+00
     3250000000    2.691425942e-02   -3.205116093e-02   -7.763522118e-02    8.350789547e-01    0.000000000e+00    0.000000000e+00    0.000000000e+00    0.000000000e+00
     3300000000    6.189893559e-02    9.487844072e-03   -2.413863391e-01    7.995139956e-01    0.000000000e+00    0.000000000e+00    0.000000000e+00    0.000000000e+00
     3350000000    9.151015431e-02    1.460159756e-02   -3.837881982e-01    7.347473502e-01    0.000000000e+00    0.000000000e+00    0.000000000e+00    0.000000000e+00
     3400000000    9.635682404e-02    2.851892449e-02   -4.990756214e-01    6.502592564e-01    0.000000000e+00    0.000000000e+00    0.000000000e+00    0.000000000e+00
     3450000000    1.826052517e-01    9.265734255e-02   -5.229508281e-01    5.085334182e-01    0.000000000e+00    0.000000000e+00    0.000000000e+00    0.000000000e+00
     3500000000    2.751999199e-01   -8.011361584e-03   -5.837443471e-01    2.763858438e-01    0.000000000e+00    0.000000000e+00    0.000000000e+00    0.000000000e+00
     3550000000    2.651593387e-01   -1.547468603e-01   -6.553710103e-01    2.536486089e-02    0.000000000e+00    0.000000000e+00    0.000000000e+00    0.000000000e+00
     3600000000    1.425735503e-01   -1.960174292e-01   -7.284400463e-01   -1.462335736e-01    0.000000000e+00    0.000000000e+00    0.000000000e+00    0.000000000e+00
     3650000000    7.482508570e-02   -1.669243723e-01   -7.160235047e-01   -3.069054782e-01    0.000000000e+00    0.000000000e+00    0.000000000e+00    0.000000000e+00
     3700000000    2.463533729e-02   -1.318384856e-01   -6.608813405e-01   -4.775213003e-01    0.000000000e+00    0.000000000e+00    0.000000000e+00    0.000000000e+00
     3750000000   -1.192785613e-02   -6.156672165e-02   -5.871132612e-01   -6.305066943e-01    0.000000000e+00    0.000000000e+00    0.000000000e+00    0.000000000e+00
     3800000000    1.969103329e-02    2.233768627e-02   -4.753588140e-01   -7.300387621e-01    0.000000000e+00    0.000000000e+00    0.000000000e+00    0.000000000e+00
     3850000000    8.534198254e-02    3.738718107e-02   -3.097720742e-01   -8.045862913e-01    0.000000000e+00    0.000000000e+00    0.000000000e+00    0.000000000e+00
     3900000000    9.934161603e-02    3.245880455e-02   -1.333791763e-01   -8.644493818e-01    0.000000000e+00    0.000000000e+00    0.000000000e+00    0.000000000e+00
     3950000000    1.338389814e-01    8.407346904e-02    3.669748083e-02   -8.627728224e-01    0.000000000e+00    0.000000000e+00    0.000000000e+00    0.000000000e+00
     4000000000    2.714301050e-01    8.396521956e-02    2.433369458e-01   -8.102967739e-01    0.000000000e+00    0.000000000e+00    0.000000000e+00    0.000000000e+00
     4050000000    3.811500669e-01   -7.858203351e-02    4.462014139e-01   -7.598892450e-01    0.000000000e+00    0.000000000e+00    0.000000000e+00    0.000000000e+00
     4100000000    3.089872599e-01   -2.938614190e-01    5.908484459e-01   -6.822449565e-01    0.000000000e+00    0.000000000e+00    0.000000000e+00    0.000000000e+00
     4150000000    8.962111175e-02   -3.774654865e-01    7.195103765e-01   -5.333417654e-01    0.000000000e+00    0.000000000e+00    0.000000000e+00    0.000000000e+00
     4200000000   -9.192415327e-02   -2.727093995e-01    8.501924276e-01   -3.750118613e-01    0.000000000e+00    0.000000000e+00    0.000000000e+00    0.000000000e+00
     4250000000   -1.348257512e-01   -1.341628432e-01    9.134595394e-01   -2.318475395e-01    0.000000000e+00    0.000000000e+00    0.000000000e+00    0.000000000e+00
     4300000000   -1.501542926e-01   -3.077059798e-02    9.142382145e-01   -4.208806157e-02    0.000000000e+00    0.000000000e+00    0.000000000e+00    0.000000000e+00
     4350000000   -1.229616851e-01    1.405102015e-01    8.969808221e-01    1.407788098e-01    0.000000000e+00    0.000000000e+00    0.000000000e+00    0.000000000e+00
     4400000000    9.451312572e-02    2.831062078e-01    8.179879785e-01    3.061534464e-01    0.000000000e+00    0.000000000e+00    0.000000000e+00    0.000000000e+00
     4450000000    3.818685710e-01    1.739476770e-01    6.873239279e-01    4.794448912e-01    0.000000000e+00    0.000000000e+00    0.000000000e+00    0.000000000e+00
     4500000000    4.697213769e-01   -1.188005507e-01    5.495296121e-01    6.432855725e-01    0.000000000e+00    0.000000000e+00    0.000000000e+00    0.000000000e+00
     4550000000    3.132887781e-01   -3.439881206e-01    3.788881004e-01    7.480260134e-01    0.000000000e+00    0.000000000e+00    0.000000000e+00    0.000000000e+00
     4600000000    1.052040383e-01   -3.511261344e-01    1.758050174e-01    8.370402455e-01    0.000000000e+00    0.000000000e+00    0.000000000e+00    0.000000000e+00
     4650000000    3.534778953e-02   -3.018940985e-01   -2.300899103e-02    8.744806647e-01    0.000000000e+00    0.000000000e+00    0.000000000e+00    0.000000000e+00
     4700000000   -7.040655613e-02   -2.390133739e-01   -2.539039552e-01    8.829839826e-01    0.000000000e+00    0.000000000e+00    0.000000000e+00    0.000000000e+00
     4750000000   -1.117604822e-01   -1.629335284e-01   -4.396834373e-01    8.190141320e-01    0.000000000e+00    0.000000000e+00    0.000000000e+00    0.000000000e+00
     4800000000   -1.347734332e-01    5.073024426e-03   -6.968587637e-01    7.356712818e-01    0.000000000e+00    0.000000000e+00    0.000000000e+00    0.000000000e+00
     4850000000    5.362305418e-02    1.391601562e-01   -9.360795617e-01    7.045380473e-01    0.000000000e+00    0.000000000e+00    0.000000000e+00    0.000000000e+00
     4900000000    2.489818037e-01    1.108233538e-02   -1.043569326e+00    6.659848094e-01    0.000000000e+00    0.000000000e+00    0.000000000e+00    0.000000000e+00
     4950000000    1.943970472e-01   -1.851079315e-01   -1.050469160e+00    5.411167145e-01    0.000000000e+00    0.000000000e+00    0.000000000e+00    0.000000000e+00
     5000000000    2.021605708e-02   -1.627781838e-01   -1.070608497e+00    3.408641219e-01    0.000000000e+00    0.000000000e+00    0.000000000e+00    0.000000000e+00
     5050000000    4.869985580e-02    9.334583767e-03   -1.087792754e+00    5.297994241e-02    0.000000000e+00    0.000000000e+00    0.000000000e+00    0.000000000e+00
     5100000000    2.462463230e-01   -1.942998543e-02   -1.085524797e+00   -4.337995872e-02    0.000000000e+00    0.000000000e+00    0.000000000e+00    0.000000000e+00
     5150000000    2.682656944e-01   -2.407880425e-01   -9.924710989e-01   -2.178715318e-01    0.000000000e+00    0.000000000e+00    0.000000000e+00    0.000000000e+00
     5200000000    6.618221849e-02   -3.455983996e-01   -8.716121316e-01   -3.847909272e-01    0.000000000e+00    0.000000000e+00    0.000000000e+00    0.000000000e+00
     5250000000   -8.186991513e-02   -2.297023684e-01   -7.395988703e-01   -5.566176772e-01    0.000000000e+00    0.000000000e+00    0.000000000e+00    0.000000000e+00
     5300000000   -4.152236506e-02   -1.393891275e-01   -5.950884223e-01   -6.960787773e-01    0.000000000e+00    0.000000000e+00    0.000000000e+00    0.000000000e+00
     5350000000   -5.605766177e-02   -1.826809645e-01   -4.427386224e-01   -7.565144300e-01    0.000000000e+00    0.000000000e+00    0.000000000e+00    0.000000000e+00
     5400000000   -1.610056013e-01   -1.109301299e-01   -2.263429016e-01   -8.062702417e-01    0.000000000e+00    0.000000000e+00    0.000000000e+00    0.000000000e+00
     5450000000   -1.043160111e-01    7.462033629e-02   -5.011207983e-02   -8.515793085e-01    0.000000000e+00    0.000000000e+00    0.000000000e+00    0.000000000e+00
     5500000000    1.228157431e-01    7.109527290e-02    8.212473243e-02   -8.122065067e-01    0.000000000e+00    0.000000000e+00    0.000000000e+00    0.000000000e+00
     5550000000    1.842026263e-01   -1.294288188e-01    2.509316206e-01   -6.897333264e-01    0.000000000e+00    0.000000000e+00    0.000000000e+00    0.000000000e+00
     5600000000    3.801695257e-02   -2.074594349e-01    4.092141390e-01   -5.564480424e-01    0.000000000e+00    0.000000000e+00    0.000000000e+00    0.000000000e+00
     5650000000    2.677041292e-02   -1.277460307e-01    5.589727163e-01   -4.021727443e-01    0.000000000e+00    0.000000000e+00    0.000000000e+00    0.000000000e+00
     5700000000    8.556640148e-02   -1.373108178e-01    6.688782573e-01   -2.618248761e-01    0.000000000e+00    0.000000000e+00    0.000000000e+00    0.000000000e+00
     5750000000    1.207144707e-01   -2.263019234e-01    7.189518213e-01   -9.991597384e-02    0.000000000e+00    0.000000000e+00    0.000000000e+00    0.000000000e+00
     5800000000    5.628524721e-02   -3.215348423e-01    7.363102436e-01    7.038786262e-02    0.000000000e+00    0.000000000e+00    0.000000000e+00    0.000000000e+00
     5850000000   -6.705583632e-02   -3.192090988e-01    7.027584314e-01    2.348070741e-01    0.000000000e+00    0.000000000e+00    0.000000000e+00    0.000000000e+00
     5900000000   -9.242065996e-02   -2.245411575e-01    6.567999721e-01    4.035998881e-01    0.000000000e+00    0.000000000e+00    0.000000000e+00    0.000000000e+00
     5950000000   -2.474504896e-02   -2.307487577e-01    5.911871791e-01    5.158262253e-01    0.000000000e+00    0.000000000e+00    0.000000000e+00    0.000000000e+00
     6000000000   -1.321627200e-01   -2.678571641e-01    7.535231709e-01    5.716318265e-02    0.000000000e+00    0.000000000e+00    0.000000000e+00    0.000000000e+00
