! NanoVNA-App									
! Date: 2024-03-20 20:46:57									
! Start: 1GHz Stop: 6GHz Points: 101									
! S-Parameter data: F S11 S21 S12 S22									
# Hz S RI R 50									
!	Frequency	S11_Real	S11_Imag	S21_Real	S21_Imag	S12_Real	S12_Imag	S22_Real	S22_Imag
	1000000000	1.23E-01	-2.43E-02	-5.55E-01	-8.79E-01	0.00E+00	0.00E+00	0.00E+00	0.00E+00
	1050000000	5.29E-02	-2.34E-02	-3.72E-01	-9.66E-01	0.00E+00	0.00E+00	0.00E+00	0.00E+00
	1100000000	5.00E-02	-1.09E-02	-1.65E-01	-1.02E+00	0.00E+00	0.00E+00	0.00E+00	0.00E+00
	1150000000	3.10E-02	-4.56E-02	3.96E-02	-1.03E+00	0.00E+00	0.00E+00	0.00E+00	0.00E+00
	1200000000	-4.86E-02	-3.57E-02	2.47E-01	-9.88E-01	0.00E+00	0.00E+00	0.00E+00	0.00E+00
	1250000000	-7.63E-02	6.73E-02	4.51E-01	-9.09E-01	0.00E+00	0.00E+00	0.00E+00	0.00E+00
	1300000000	1.70E-02	1.36E-01	6.32E-01	-8.00E-01	0.00E+00	0.00E+00	0.00E+00	0.00E+00
	1350000000	1.03E-01	6.57E-02	7.73E-01	-6.50E-01	0.00E+00	0.00E+00	0.00E+00	0.00E+00
	1400000000	7.62E-02	4.58E-03	9.02E-01	-4.81E-01	0.00E+00	0.00E+00	0.00E+00	0.00E+00
	1450000000	1.94E-02	2.05E-02	9.74E-01	-2.97E-01	0.00E+00	0.00E+00	0.00E+00	0.00E+00
	1500000000	5.19E-02	6.26E-02	1.00E+00	-1.01E-01	0.00E+00	0.00E+00	0.00E+00	0.00E+00
	1550000000	9.35E-02	6.73E-03	9.90E-01	1.03E-01	0.00E+00	0.00E+00	0.00E+00	0.00E+00
	1600000000	1.14E-02	-5.31E-02	9.44E-01	2.95E-01	0.00E+00	0.00E+00	0.00E+00	0.00E+00
	1650000000	-9.17E-02	4.32E-02	8.55E-01	4.64E-01	0.00E+00	0.00E+00	0.00E+00	0.00E+00
	1700000000	-1.94E-02	2.01E-01	7.26E-01	6.04E-01	0.00E+00	0.00E+00	0.00E+00	0.00E+00
	1750000000	1.67E-01	1.97E-01	5.69E-01	7.37E-01	0.00E+00	0.00E+00	0.00E+00	0.00E+00
	1800000000	2.42E-01	3.81E-02	4.18E-01	8.43E-01	0.00E+00	0.00E+00	0.00E+00	0.00E+00
	1850000000	1.53E-01	-7.91E-02	2.65E-01	8.97E-01	0.00E+00	0.00E+00	0.00E+00	0.00E+00
	1900000000	5.81E-02	-5.94E-02	1.22E-01	9.09E-01	0.00E+00	0.00E+00	0.00E+00	0.00E+00
	1950000000	4.55E-02	-1.80E-02	4.32E-03	8.87E-01	0.00E+00	0.00E+00	0.00E+00	0.00E+00
	2000000000	7.18E-02	-1.43E-02	-5.22E-02	8.03E-01	0.00E+00	0.00E+00	0.00E+00	0.00E+00
	2050000000	6.08E-02	-1.85E-01	-3.86E-02	5.59E-01	0.00E+00	0.00E+00	0.00E+00	0.00E+00
	2100000000	-3.89E-01	-3.17E-02	-2.77E-01	1.94E-01	0.00E+00	0.00E+00	0.00E+00	0.00E+00
	2150000000	-1.82E-01	4.69E-01	-4.92E-01	5.87E-02	0.00E+00	0.00E+00	0.00E+00	0.00E+00
	2200000000	2.70E-01	4.76E-01	-5.90E-01	-5.86E-02	0.00E+00	0.00E+00	0.00E+00	0.00E+00
	2250000000	5.14E-01	1.70E-01	-6.25E-01	-1.68E-01	0.00E+00	0.00E+00	0.00E+00	0.00E+00
	2300000000	4.54E-01	-1.73E-01	-5.95E-01	-2.75E-01	0.00E+00	0.00E+00	0.00E+00	0.00E+00
	2350000000	1.96E-01	-3.52E-01	-5.24E-01	-3.83E-01	0.00E+00	0.00E+00	0.00E+00	0.00E+00
	2400000000	-9.20E-02	-2.99E-01	-4.36E-01	-4.74E-01	0.00E+00	0.00E+00	0.00E+00	0.00E+00
	2450000000	-2.35E-01	-6.19E-02	-3.46E-01	-5.34E-01	0.00E+00	0.00E+00	0.00E+00	0.00E+00
	2500000000	-1.08E-01	1.38E-01	-2.77E-01	-5.03E-01	0.00E+00	0.00E+00	0.00E+00	0.00E+00
	2550000000	-1.41E-01	1.26E-01	-1.23E-02	-3.40E-01	0.00E+00	0.00E+00	0.00E+00	0.00E+00
	2600000000	4.54E-02	3.56E-01	2.42E-01	-3.96E-01	0.00E+00	0.00E+00	0.00E+00	0.00E+00
	2650000000	3.25E-01	2.50E-01	3.85E-01	-3.75E-01	0.00E+00	0.00E+00	0.00E+00	0.00E+00
	2700000000	3.88E-01	-1.56E-02	5.05E-01	-2.96E-01	0.00E+00	0.00E+00	0.00E+00	0.00E+00
	2750000000	2.44E-01	-2.05E-01	6.15E-01	-1.85E-01	0.00E+00	0.00E+00	0.00E+00	0.00E+00
	2800000000	4.52E-02	-2.08E-01	7.02E-01	-5.82E-02	0.00E+00	0.00E+00	0.00E+00	0.00E+00
	2850000000	-5.20E-02	-8.75E-02	7.42E-01	6.33E-02	0.00E+00	0.00E+00	0.00E+00	0.00E+00
	2900000000	-3.44E-02	2.64E-02	7.22E-01	1.89E-01	0.00E+00	0.00E+00	0.00E+00	0.00E+00
	2950000000	1.61E-02	6.50E-02	6.42E-01	3.60E-01	0.00E+00	0.00E+00	0.00E+00	0.00E+00
	3000000000	9.68E-02	1.19E-01	5.98E-01	5.17E-01	0.00E+00	0.00E+00	0.00E+00	0.00E+00
	3050000000	2.08E-01	6.44E-02	5.00E-01	6.30E-01	0.00E+00	0.00E+00	0.00E+00	0.00E+00
	3100000000	2.26E-01	-5.91E-02	3.62E-01	7.40E-01	0.00E+00	0.00E+00	0.00E+00	0.00E+00
	3150000000	1.38E-01	-1.37E-01	2.32E-01	8.24E-01	0.00E+00	0.00E+00	0.00E+00	0.00E+00
	3200000000	4.62E-02	-1.06E-01	9.16E-02	8.50E-01	0.00E+00	0.00E+00	0.00E+00	0.00E+00
	3250000000	3.09E-02	-3.30E-02	-7.44E-02	8.38E-01	0.00E+00	0.00E+00	0.00E+00	0.00E+00
	3300000000	6.30E-02	5.81E-03	-2.33E-01	8.03E-01	0.00E+00	0.00E+00	0.00E+00	0.00E+00
	3350000000	9.05E-02	1.17E-02	-3.81E-01	7.38E-01	0.00E+00	0.00E+00	0.00E+00	0.00E+00
	3400000000	9.37E-02	2.83E-02	-4.94E-01	6.53E-01	0.00E+00	0.00E+00	0.00E+00	0.00E+00
	3450000000	1.84E-01	9.42E-02	-5.19E-01	5.06E-01	0.00E+00	0.00E+00	0.00E+00	0.00E+00
	3500000000	2.75E-01	-8.26E-03	-5.84E-01	2.75E-01	0.00E+00	0.00E+00	0.00E+00	0.00E+00
	3550000000	2.63E-01	-1.54E-01	-6.60E-01	2.33E-02	0.00E+00	0.00E+00	0.00E+00	0.00E+00
	3600000000	1.43E-01	-1.93E-01	-7.31E-01	-1.43E-01	0.00E+00	0.00E+00	0.00E+00	0.00E+00
	3650000000	7.72E-02	-1.65E-01	-7.18E-01	-3.06E-01	0.00E+00	0.00E+00	0.00E+00	0.00E+00
	3700000000	2.71E-02	-1.33E-01	-6.62E-01	-4.79E-01	0.00E+00	0.00E+00	0.00E+00	0.00E+00
	3750000000	-1.04E-02	-6.29E-02	-5.91E-01	-6.29E-01	0.00E+00	0.00E+00	0.00E+00	0.00E+00
	3800000000	1.97E-02	2.03E-02	-4.81E-01	-7.29E-01	0.00E+00	0.00E+00	0.00E+00	0.00E+00
	3850000000	8.33E-02	3.60E-02	-3.11E-01	-8.07E-01	0.00E+00	0.00E+00	0.00E+00	0.00E+00
	3900000000	9.68E-02	3.27E-02	-1.33E-01	-8.66E-01	0.00E+00	0.00E+00	0.00E+00	0.00E+00
	3950000000	1.32E-01	8.61E-02	3.25E-02	-8.64E-01	0.00E+00	0.00E+00	0.00E+00	0.00E+00
	4000000000	2.72E-01	8.66E-02	2.40E-01	-8.13E-01	0.00E+00	0.00E+00	0.00E+00	0.00E+00
	4050000000	3.82E-01	-7.67E-02	4.45E-01	-7.62E-01	0.00E+00	0.00E+00	0.00E+00	0.00E+00
	4100000000	3.10E-01	-2.94E-01	5.92E-01	-6.83E-01	0.00E+00	0.00E+00	0.00E+00	0.00E+00
	4150000000	9.08E-02	-3.78E-01	7.18E-01	-5.37E-01	0.00E+00	0.00E+00	0.00E+00	0.00E+00
	4200000000	-9.08E-02	-2.75E-01	8.51E-01	-3.79E-01	0.00E+00	0.00E+00	0.00E+00	0.00E+00
	4250000000	-1.35E-01	-1.36E-01	9.14E-01	-2.35E-01	0.00E+00	0.00E+00	0.00E+00	0.00E+00
	4300000000	-1.52E-01	-3.22E-02	9.15E-01	-4.84E-02	0.00E+00	0.00E+00	0.00E+00	0.00E+00
	4350000000	-1.25E-01	1.42E-01	8.98E-01	1.38E-01	0.00E+00	0.00E+00	0.00E+00	0.00E+00
	4400000000	9.36E-02	2.85E-01	8.20E-01	3.00E-01	0.00E+00	0.00E+00	0.00E+00	0.00E+00
	4450000000	3.82E-01	1.77E-01	6.89E-01	4.77E-01	0.00E+00	0.00E+00	0.00E+00	0.00E+00
	4500000000	4.71E-01	-1.18E-01	5.52E-01	6.38E-01	0.00E+00	0.00E+00	0.00E+00	0.00E+00
	4550000000	3.17E-01	-3.45E-01	3.82E-01	7.45E-01	0.00E+00	0.00E+00	0.00E+00	0.00E+00
	4600000000	1.09E-01	-3.55E-01	1.74E-01	8.33E-01	0.00E+00	0.00E+00	0.00E+00	0.00E+00
	4650000000	3.08E-02	-3.05E-01	-2.35E-02	8.75E-01	0.00E+00	0.00E+00	0.00E+00	0.00E+00
	4700000000	-7.14E-02	-2.40E-01	-2.53E-01	8.86E-01	0.00E+00	0.00E+00	0.00E+00	0.00E+00
	4750000000	-1.13E-01	-1.63E-01	-4.37E-01	8.19E-01	0.00E+00	0.00E+00	0.00E+00	0.00E+00
	4800000000	-1.35E-01	5.09E-03	-6.95E-01	7.35E-01	0.00E+00	0.00E+00	0.00E+00	0.00E+00
	4850000000	5.44E-02	1.41E-01	-9.35E-01	7.06E-01	0.00E+00	0.00E+00	0.00E+00	0.00E+00
	4900000000	2.53E-01	1.19E-02	-1.05E+00	6.65E-01	0.00E+00	0.00E+00	0.00E+00	0.00E+00
	4950000000	1.99E-01	-1.88E-01	-1.05E+00	5.37E-01	0.00E+00	0.00E+00	0.00E+00	0.00E+00
	5000000000	2.04E-02	-1.67E-01	-1.07E+00	3.46E-01	0.00E+00	0.00E+00	0.00E+00	0.00E+00
	5050000000	4.60E-02	7.26E-03	-1.09E+00	5.65E-02	0.00E+00	0.00E+00	0.00E+00	0.00E+00
	5100000000	2.45E-01	-1.85E-02	-1.09E+00	-4.43E-02	0.00E+00	0.00E+00	0.00E+00	0.00E+00
	5150000000	2.67E-01	-2.40E-01	-9.96E-01	-2.13E-01	0.00E+00	0.00E+00	0.00E+00	0.00E+00
	5200000000	6.67E-02	-3.45E-01	-8.73E-01	-3.87E-01	0.00E+00	0.00E+00	0.00E+00	0.00E+00
	5250000000	-7.98E-02	-2.28E-01	-7.42E-01	-5.56E-01	0.00E+00	0.00E+00	0.00E+00	0.00E+00
	5300000000	-3.72E-02	-1.40E-01	-5.98E-01	-6.95E-01	0.00E+00	0.00E+00	0.00E+00	0.00E+00
	5350000000	-5.45E-02	-1.84E-01	-4.50E-01	-7.52E-01	0.00E+00	0.00E+00	0.00E+00	0.00E+00
	5400000000	-1.60E-01	-1.13E-01	-2.33E-01	-8.04E-01	0.00E+00	0.00E+00	0.00E+00	0.00E+00
	5450000000	-1.04E-01	7.03E-02	-5.26E-02	-8.50E-01	0.00E+00	0.00E+00	0.00E+00	0.00E+00
	5500000000	1.19E-01	6.77E-02	8.05E-02	-8.11E-01	0.00E+00	0.00E+00	0.00E+00	0.00E+00
	5550000000	1.79E-01	-1.27E-01	2.49E-01	-6.95E-01	0.00E+00	0.00E+00	0.00E+00	0.00E+00
	5600000000	4.01E-02	-1.98E-01	4.08E-01	-5.59E-01	0.00E+00	0.00E+00	0.00E+00	0.00E+00
	5650000000	3.62E-02	-1.33E-01	5.61E-01	-4.04E-01	0.00E+00	0.00E+00	0.00E+00	0.00E+00
	5700000000	8.60E-02	-1.42E-01	6.70E-01	-2.66E-01	0.00E+00	0.00E+00	0.00E+00	0.00E+00
	5750000000	1.23E-01	-2.28E-01	7.20E-01	-1.04E-01	0.00E+00	0.00E+00	0.00E+00	0.00E+00
	5800000000	5.39E-02	-3.23E-01	7.39E-01	6.33E-02	0.00E+00	0.00E+00	0.00E+00	0.00E+00
	5850000000	-6.75E-02	-3.20E-01	7.06E-01	2.29E-01	0.00E+00	0.00E+00	0.00E+00	0.00E+00
	5900000000	-9.10E-02	-2.23E-01	6.60E-01	3.99E-01	0.00E+00	0.00E+00	0.00E+00	0.00E+00
	5950000000	-1.98E-02	-2.29E-01	5.94E-01	5.10E-01	0.00E+00	0.00E+00	0.00E+00	0.00E+00
	6000000000	-1.29E-01	-2.69E-01	7.51E-01	4.85E-02	0.00E+00	0.00E+00	0.00E+00	0.00E+00
