! NanoVNA-App
! Date: 2024-03-20 19:53:34
! Start: 1GHz Stop: 6GHz Points: 101
! S-Parameter data: F S11 S21 S12 S22
# Hz S RI R 50
!     Frequency           S11_Real           S11_Imag           S21_Real           S21_Imag           S12_Real           S12_Imag           S22_Real           S22_Imag
     1000000000    1.241548657e-01   -2.408853173e-02   -5.515434742e-01   -8.806910515e-01    0.000000000e+00    0.000000000e+00    0.000000000e+00    0.000000000e+00
     1050000000    5.384020880e-02   -2.382575348e-02   -3.698166013e-01   -9.669128060e-01    0.000000000e+00    0.000000000e+00    0.000000000e+00    0.000000000e+00
     1100000000    5.056722835e-02   -1.076563820e-02   -1.635517627e-01   -1.019811511e+00    0.000000000e+00    0.000000000e+00    0.000000000e+00    0.000000000e+00
     1150000000    3.216497228e-02   -4.536413401e-02    4.204063863e-02   -1.031226158e+00    0.000000000e+00    0.000000000e+00    0.000000000e+00    0.000000000e+00
     1200000000   -4.721726850e-02   -3.616161272e-02    2.490975112e-01   -9.880717993e-01    0.000000000e+00    0.000000000e+00    0.000000000e+00    0.000000000e+00
     1250000000   -7.590448111e-02    6.642513722e-02    4.539186954e-01   -9.075869918e-01    0.000000000e+00    0.000000000e+00    0.000000000e+00    0.000000000e+00
     1300000000    1.692142151e-02    1.360676438e-01    6.337161064e-01   -7.988294959e-01    0.000000000e+00    0.000000000e+00    0.000000000e+00    0.000000000e+00
     1350000000    1.033223942e-01    6.678912789e-02    7.745675445e-01   -6.490977407e-01    0.000000000e+00    0.000000000e+00    0.000000000e+00    0.000000000e+00
     1400000000    7.692817599e-02    5.239567719e-03    9.059670568e-01   -4.778510928e-01    0.000000000e+00    0.000000000e+00    0.000000000e+00    0.000000000e+00
     1450000000    1.970173046e-02    2.110663988e-02    9.755800962e-01   -2.944205999e-01    0.000000000e+00    0.000000000e+00    0.000000000e+00    0.000000000e+00
     1500000000    5.251547694e-02    6.386325508e-02    1.002616644e+00   -9.819439054e-02    0.000000000e+00    0.000000000e+00    0.000000000e+00    0.000000000e+00
     1550000000    9.563800693e-02    7.762114052e-03    9.902921319e-01    1.058591381e-01    0.000000000e+00    0.000000000e+00    0.000000000e+00    0.000000000e+00
     1600000000    1.358999219e-02   -5.398042127e-02    9.414753318e-01    2.960030138e-01    0.000000000e+00    0.000000000e+00    0.000000000e+00    0.000000000e+00
     1650000000   -9.142982215e-02    4.158769175e-02    8.543013930e-01    4.656054378e-01    0.000000000e+00    0.000000000e+00    0.000000000e+00    0.000000000e+00
     1700000000   -2.078948915e-02    2.001027316e-01    7.254745960e-01    6.079568863e-01    0.000000000e+00    0.000000000e+00    0.000000000e+00    0.000000000e+00
     1750000000    1.660185903e-01    1.980240047e-01    5.704439878e-01    7.377960682e-01    0.000000000e+00    0.000000000e+00    0.000000000e+00    0.000000000e+00
     1800000000    2.423216999e-01    3.928346559e-02    4.160694182e-01    8.465788960e-01    0.000000000e+00    0.000000000e+00    0.000000000e+00    0.000000000e+00
     1850000000    1.538306326e-01   -7.720763236e-02    2.625141144e-01    9.009656310e-01    0.000000000e+00    0.000000000e+00    0.000000000e+00    0.000000000e+00
     1900000000    6.015277654e-02   -5.848332494e-02    1.193334460e-01    9.121686816e-01    0.000000000e+00    0.000000000e+00    0.000000000e+00    0.000000000e+00
     1950000000    4.715907946e-02   -1.964798756e-02    9.522990440e-04    8.909373283e-01    0.000000000e+00    0.000000000e+00    0.000000000e+00    0.000000000e+00
     2000000000    6.875880808e-02   -1.516454108e-02   -5.532495305e-02    8.105126619e-01    0.000000000e+00    0.000000000e+00    0.000000000e+00    0.000000000e+00
     2050000000    6.479762495e-02   -1.744321734e-01   -4.076277092e-02    5.741603374e-01    0.000000000e+00    0.000000000e+00    0.000000000e+00    0.000000000e+00
     2100000000   -3.895129561e-01   -4.636438563e-02   -2.628039718e-01    2.014429569e-01    0.000000000e+00    0.000000000e+00    0.000000000e+00    0.000000000e+00
     2150000000   -1.906734854e-01    4.682343602e-01   -4.869148731e-01    5.854865909e-02    0.000000000e+00    0.000000000e+00    0.000000000e+00    0.000000000e+00
     2200000000    2.677271664e-01    4.812520444e-01   -5.882856250e-01   -5.821790174e-02    0.000000000e+00    0.000000000e+00    0.000000000e+00    0.000000000e+00
     2250000000    5.152939558e-01    1.748922318e-01   -6.245043278e-01   -1.684350520e-01    0.000000000e+00    0.000000000e+00    0.000000000e+00    0.000000000e+00
     2300000000    4.585881233e-01   -1.702312976e-01   -5.967256427e-01   -2.753254771e-01    0.000000000e+00    0.000000000e+00    0.000000000e+00    0.000000000e+00
     2350000000    1.998033226e-01   -3.521703184e-01   -5.269412994e-01   -3.822420537e-01    0.000000000e+00    0.000000000e+00    0.000000000e+00    0.000000000e+00
     2400000000   -8.744336665e-02   -3.052619100e-01   -4.407540560e-01   -4.754777551e-01    0.000000000e+00    0.000000000e+00    0.000000000e+00    0.000000000e+00
     2450000000   -2.378350049e-01   -6.862405688e-02   -3.496562839e-01   -5.339359045e-01    0.000000000e+00    0.000000000e+00    0.000000000e+00    0.000000000e+00
     2500000000   -1.150755286e-01    1.408825219e-01   -2.839744687e-01   -5.027647614e-01    0.000000000e+00    0.000000000e+00    0.000000000e+00    0.000000000e+00
     2550000000   -1.434322149e-01    1.213338152e-01   -2.294081263e-02   -3.293319941e-01    0.000000000e+00    0.000000000e+00    0.000000000e+00    0.000000000e+00
     2600000000    3.709233925e-02    3.652240932e-01    2.439043671e-01   -3.876068890e-01    0.000000000e+00    0.000000000e+00    0.000000000e+00    0.000000000e+00
     2650000000    3.319440782e-01    2.605967820e-01    3.848685026e-01   -3.747372031e-01    0.000000000e+00    0.000000000e+00    0.000000000e+00    0.000000000e+00
     2700000000    4.020610154e-01   -1.408105530e-02    5.089665055e-01   -2.938590348e-01    0.000000000e+00    0.000000000e+00    0.000000000e+00    0.000000000e+00
     2750000000    2.497525364e-01   -2.127670199e-01    6.128458977e-01   -1.863433123e-01    0.000000000e+00    0.000000000e+00    0.000000000e+00    0.000000000e+00
     2800000000    3.963487968e-02   -2.164794356e-01    6.988571286e-01   -6.479227543e-02    0.000000000e+00    0.000000000e+00    0.000000000e+00    0.000000000e+00
     2850000000   -6.168745458e-02   -9.111733735e-02    7.384510040e-01    5.890516192e-02    0.000000000e+00    0.000000000e+00    0.000000000e+00    0.000000000e+00
     2900000000   -4.240189120e-02    3.170181811e-02    7.171152234e-01    1.844237745e-01    0.000000000e+00    0.000000000e+00    0.000000000e+00    0.000000000e+00
     2950000000    1.741217077e-02    7.360821962e-02    6.421516538e-01    3.586022556e-01    0.000000000e+00    0.000000000e+00    0.000000000e+00    0.000000000e+00
     3000000000    1.038250104e-01    1.235911995e-01    5.903902054e-01    5.138413310e-01    0.000000000e+00    0.000000000e+00    0.000000000e+00    0.000000000e+00
     3050000000    2.137620598e-01    6.214521453e-02    4.915155172e-01    6.251660585e-01    0.000000000e+00    0.000000000e+00    0.000000000e+00    0.000000000e+00
     3100000000    2.283196598e-01   -6.450472027e-02    3.551195562e-01    7.357047796e-01    0.000000000e+00    0.000000000e+00    0.000000000e+00    0.000000000e+00
     3150000000    1.365774721e-01   -1.412809640e-01    2.232317477e-01    8.217401505e-01    0.000000000e+00    0.000000000e+00    0.000000000e+00    0.000000000e+00
     3200000000    4.165825248e-02   -1.076221839e-01    8.491493762e-02    8.467616439e-01    0.000000000e+00    0.000000000e+00    0.000000000e+00    0.000000000e+00
     3250000000    2.658908442e-02   -3.082001582e-02   -8.118583262e-02    8.358103633e-01    0.000000000e+00    0.000000000e+00    0.000000000e+00    0.000000000e+00
     3300000000    6.237215921e-02    9.727713652e-03   -2.439733446e-01    7.991698384e-01    0.000000000e+00    0.000000000e+00    0.000000000e+00    0.000000000e+00
     3350000000    9.234613925e-02    1.429140847e-02   -3.871665895e-01    7.346733212e-01    0.000000000e+00    0.000000000e+00    0.000000000e+00    0.000000000e+00
     3400000000    9.639111161e-02    2.839560620e-02   -5.002788901e-01    6.504977942e-01    0.000000000e+00    0.000000000e+00    0.000000000e+00    0.000000000e+00
     3450000000    1.822078675e-01    9.203533828e-02   -5.241019130e-01    5.084644556e-01    0.000000000e+00    0.000000000e+00    0.000000000e+00    0.000000000e+00
     3500000000    2.741294503e-01   -8.368046954e-03   -5.833501220e-01    2.773116231e-01    0.000000000e+00    0.000000000e+00    0.000000000e+00    0.000000000e+00
     3550000000    2.648575008e-01   -1.557025015e-01   -6.557052732e-01    2.310169302e-02    0.000000000e+00    0.000000000e+00    0.000000000e+00    0.000000000e+00
     3600000000    1.418336034e-01   -1.952645034e-01   -7.288867831e-01   -1.478732377e-01    0.000000000e+00    0.000000000e+00    0.000000000e+00    0.000000000e+00
     3650000000    7.475011796e-02   -1.659182608e-01   -7.165760398e-01   -3.072275519e-01    0.000000000e+00    0.000000000e+00    0.000000000e+00    0.000000000e+00
     3700000000    2.563912235e-02   -1.317573190e-01   -6.604422331e-01   -4.786147773e-01    0.000000000e+00    0.000000000e+00    0.000000000e+00    0.000000000e+00
     3750000000   -1.096583717e-02   -6.210969388e-02   -5.867121816e-01   -6.312078238e-01    0.000000000e+00    0.000000000e+00    0.000000000e+00    0.000000000e+00
     3800000000    1.944562607e-02    2.084075473e-02   -4.770512879e-01   -7.290971279e-01    0.000000000e+00    0.000000000e+00    0.000000000e+00    0.000000000e+00
     3850000000    8.357136697e-02    3.687954694e-02   -3.070946634e-01   -8.058835864e-01    0.000000000e+00    0.000000000e+00    0.000000000e+00    0.000000000e+00
     3900000000    9.772195667e-02    3.250328079e-02   -1.324789822e-01   -8.637236953e-01    0.000000000e+00    0.000000000e+00    0.000000000e+00    0.000000000e+00
     3950000000    1.337974966e-01    8.477499336e-02    3.722784668e-02   -8.611631989e-01    0.000000000e+00    0.000000000e+00    0.000000000e+00    0.000000000e+00
     4000000000    2.722156644e-01    8.388154209e-02    2.406006008e-01   -8.104469180e-01    0.000000000e+00    0.000000000e+00    0.000000000e+00    0.000000000e+00
     4050000000    3.814964294e-01   -7.784353942e-02    4.482627511e-01   -7.575409412e-01    0.000000000e+00    0.000000000e+00    0.000000000e+00    0.000000000e+00
     4100000000    3.095279336e-01   -2.944832444e-01    5.907921791e-01   -6.811660528e-01    0.000000000e+00    0.000000000e+00    0.000000000e+00    0.000000000e+00
     4150000000    8.948419243e-02   -3.776157498e-01    7.203302979e-01   -5.308635831e-01    0.000000000e+00    0.000000000e+00    0.000000000e+00    0.000000000e+00
     4200000000   -9.131880850e-02   -2.737147808e-01    8.490096927e-01   -3.730340898e-01    0.000000000e+00    0.000000000e+00    0.000000000e+00    0.000000000e+00
     4250000000   -1.349262297e-01   -1.341447681e-01    9.121626019e-01   -2.283971757e-01    0.000000000e+00    0.000000000e+00    0.000000000e+00    0.000000000e+00
     4300000000   -1.504549980e-01   -3.090277314e-02    9.133238196e-01   -4.052597657e-02    0.000000000e+00    0.000000000e+00    0.000000000e+00    0.000000000e+00
     4350000000   -1.226316765e-01    1.420883536e-01    8.960940838e-01    1.414179504e-01    0.000000000e+00    0.000000000e+00    0.000000000e+00    0.000000000e+00
     4400000000    9.541274607e-02    2.834058404e-01    8.165426850e-01    3.074541688e-01    0.000000000e+00    0.000000000e+00    0.000000000e+00    0.000000000e+00
     4450000000    3.825437427e-01    1.745267808e-01    6.874192357e-01    4.808077812e-01    0.000000000e+00    0.000000000e+00    0.000000000e+00    0.000000000e+00
     4500000000    4.702872038e-01   -1.186997071e-01    5.469269753e-01    6.423820257e-01    0.000000000e+00    0.000000000e+00    0.000000000e+00    0.000000000e+00
     4550000000    3.137441874e-01   -3.444693685e-01    3.784462214e-01    7.483051419e-01    0.000000000e+00    0.000000000e+00    0.000000000e+00    0.000000000e+00
     4600000000    1.050117016e-01   -3.508410752e-01    1.758506149e-01    8.362217546e-01    0.000000000e+00    0.000000000e+00    0.000000000e+00    0.000000000e+00
     4650000000    3.391632810e-02   -3.009034097e-01   -2.076241374e-02    8.749320507e-01    0.000000000e+00    0.000000000e+00    0.000000000e+00    0.000000000e+00
     4700000000   -7.112859935e-02   -2.390887588e-01   -2.559140325e-01    8.831604123e-01    0.000000000e+00    0.000000000e+00    0.000000000e+00    0.000000000e+00
     4750000000   -1.118401885e-01   -1.613315195e-01   -4.419227540e-01    8.168903589e-01    0.000000000e+00    0.000000000e+00    0.000000000e+00    0.000000000e+00
     4800000000   -1.344399303e-01    5.364989396e-03   -7.003375292e-01    7.294410467e-01    0.000000000e+00    0.000000000e+00    0.000000000e+00    0.000000000e+00
     4850000000    5.348185077e-02    1.397975981e-01   -9.384576082e-01    7.030213475e-01    0.000000000e+00    0.000000000e+00    0.000000000e+00    0.000000000e+00
     4900000000    2.494085133e-01    1.147195976e-02   -1.046287417e+00    6.636422276e-01    0.000000000e+00    0.000000000e+00    0.000000000e+00    0.000000000e+00
     4950000000    1.967723817e-01   -1.855340004e-01   -1.057336569e+00    5.308761001e-01    0.000000000e+00    0.000000000e+00    0.000000000e+00    0.000000000e+00
     5000000000    1.995255239e-02   -1.632979065e-01   -1.070343614e+00    3.418751359e-01    0.000000000e+00    0.000000000e+00    0.000000000e+00    0.000000000e+00
     5050000000    4.833490029e-02    9.354013018e-03   -1.086401939e+00    5.220803991e-02    0.000000000e+00    0.000000000e+00    0.000000000e+00    0.000000000e+00
     5100000000    2.454831600e-01   -1.906832866e-02   -1.085697770e+00   -4.494559765e-02    0.000000000e+00    0.000000000e+00    0.000000000e+00    0.000000000e+00
     5150000000    2.665301859e-01   -2.406582236e-01   -9.932613969e-01   -2.156014293e-01    0.000000000e+00    0.000000000e+00    0.000000000e+00    0.000000000e+00
     5200000000    6.666661799e-02   -3.445471525e-01   -8.695411682e-01   -3.897184432e-01    0.000000000e+00    0.000000000e+00    0.000000000e+00    0.000000000e+00
     5250000000   -8.239045739e-02   -2.293266356e-01   -7.384036779e-01   -5.585428476e-01    0.000000000e+00    0.000000000e+00    0.000000000e+00    0.000000000e+00
     5300000000   -4.126096517e-02   -1.396868676e-01   -5.929434896e-01   -6.992061734e-01    0.000000000e+00    0.000000000e+00    0.000000000e+00    0.000000000e+00
     5350000000   -5.606179312e-02   -1.812301129e-01   -4.425419569e-01   -7.546071410e-01    0.000000000e+00    0.000000000e+00    0.000000000e+00    0.000000000e+00
     5400000000   -1.614436507e-01   -1.094922349e-01   -2.289202660e-01   -8.052052259e-01    0.000000000e+00    0.000000000e+00    0.000000000e+00    0.000000000e+00
     5450000000   -1.044681072e-01    7.438567281e-02   -4.617901146e-02   -8.516294360e-01    0.000000000e+00    0.000000000e+00    0.000000000e+00    0.000000000e+00
     5500000000    1.215146109e-01    7.141389698e-02    8.189520240e-02   -8.107161522e-01    0.000000000e+00    0.000000000e+00    0.000000000e+00    0.000000000e+00
     5550000000    1.834715307e-01   -1.301307380e-01    2.512107790e-01   -6.911626458e-01    0.000000000e+00    0.000000000e+00    0.000000000e+00    0.000000000e+00
     5600000000    3.800709546e-02   -2.081363201e-01    4.133843780e-01   -5.550251007e-01    0.000000000e+00    0.000000000e+00    0.000000000e+00    0.000000000e+00
     5650000000    2.474647015e-02   -1.269465089e-01    5.583567023e-01   -4.037837684e-01    0.000000000e+00    0.000000000e+00    0.000000000e+00    0.000000000e+00
     5700000000    8.707322925e-02   -1.363915205e-01    6.720557213e-01   -2.549116611e-01    0.000000000e+00    0.000000000e+00    0.000000000e+00    0.000000000e+00
     5750000000    1.205302179e-01   -2.268625051e-01    7.190192938e-01   -9.909424931e-02    0.000000000e+00    0.000000000e+00    0.000000000e+00    0.000000000e+00
     5800000000    5.430304259e-02   -3.212945461e-01    7.367604971e-01    7.154642045e-02    0.000000000e+00    0.000000000e+00    0.000000000e+00    0.000000000e+00
     5850000000   -6.709565967e-02   -3.188095093e-01    7.036105990e-01    2.355285883e-01    0.000000000e+00    0.000000000e+00    0.000000000e+00    0.000000000e+00
     5900000000   -9.387297928e-02   -2.239633650e-01    6.561326981e-01    4.049322009e-01    0.000000000e+00    0.000000000e+00    0.000000000e+00    0.000000000e+00
     5950000000   -2.462673001e-02   -2.294867188e-01    5.893597603e-01    5.181143880e-01    0.000000000e+00    0.000000000e+00    0.000000000e+00    0.000000000e+00
     6000000000   -1.318735778e-01   -2.661263645e-01    7.542091608e-01    6.237989664e-02    0.000000000e+00    0.000000000e+00    0.000000000e+00    0.000000000e+00
