! NanoVNA-App									
! Date: 2024-03-21 01:35:05									
! Start: 1GHz Stop: 6GHz Points: 101									
! S-Parameter data: F S11 S21 S12 S22									
# Hz S RI R 50									
!	Frequency	S11_Real	S11_Imag	S21_Real	S21_Imag	S12_Real	S12_Imag	S22_Real	S22_Imag
	1000000000	1.21E-01	-2.28E-02	-5.56E-01	-8.77E-01	0.00E+00	0.00E+00	0.00E+00	0.00E+00
	1050000000	5.25E-02	-2.21E-02	-3.75E-01	-9.64E-01	0.00E+00	0.00E+00	0.00E+00	0.00E+00
	1100000000	4.99E-02	-1.09E-02	-1.68E-01	-1.02E+00	0.00E+00	0.00E+00	0.00E+00	0.00E+00
	1150000000	3.02E-02	-4.67E-02	3.74E-02	-1.03E+00	0.00E+00	0.00E+00	0.00E+00	0.00E+00
	1200000000	-5.01E-02	-3.68E-02	2.44E-01	-9.89E-01	0.00E+00	0.00E+00	0.00E+00	0.00E+00
	1250000000	-7.79E-02	6.60E-02	4.49E-01	-9.11E-01	0.00E+00	0.00E+00	0.00E+00	0.00E+00
	1300000000	1.46E-02	1.34E-01	6.31E-01	-8.02E-01	0.00E+00	0.00E+00	0.00E+00	0.00E+00
	1350000000	9.94E-02	6.57E-02	7.72E-01	-6.55E-01	0.00E+00	0.00E+00	0.00E+00	0.00E+00
	1400000000	7.24E-02	4.94E-03	9.03E-01	-4.83E-01	0.00E+00	0.00E+00	0.00E+00	0.00E+00
	1450000000	1.71E-02	2.31E-02	9.75E-01	-3.01E-01	0.00E+00	0.00E+00	0.00E+00	0.00E+00
	1500000000	5.29E-02	6.54E-02	1.00E+00	-1.01E-01	0.00E+00	0.00E+00	0.00E+00	0.00E+00
	1550000000	9.72E-02	7.09E-03	9.92E-01	1.02E-01	0.00E+00	0.00E+00	0.00E+00	0.00E+00
	1600000000	1.54E-02	-5.73E-02	9.44E-01	2.94E-01	0.00E+00	0.00E+00	0.00E+00	0.00E+00
	1650000000	-9.13E-02	3.57E-02	8.58E-01	4.63E-01	0.00E+00	0.00E+00	0.00E+00	0.00E+00
	1700000000	-2.52E-02	1.94E-01	7.31E-01	6.09E-01	0.00E+00	0.00E+00	0.00E+00	0.00E+00
	1750000000	1.58E-01	1.95E-01	5.75E-01	7.39E-01	0.00E+00	0.00E+00	0.00E+00	0.00E+00
	1800000000	2.35E-01	4.23E-02	4.23E-01	8.48E-01	0.00E+00	0.00E+00	0.00E+00	0.00E+00
	1850000000	1.51E-01	-7.00E-02	2.68E-01	9.03E-01	0.00E+00	0.00E+00	0.00E+00	0.00E+00
	1900000000	6.54E-02	-5.27E-02	1.22E-01	9.18E-01	0.00E+00	0.00E+00	0.00E+00	0.00E+00
	1950000000	5.66E-02	-2.01E-02	4.96E-03	8.96E-01	0.00E+00	0.00E+00	0.00E+00	0.00E+00
	2000000000	7.83E-02	-2.38E-02	-5.18E-02	8.15E-01	0.00E+00	0.00E+00	0.00E+00	0.00E+00
	2050000000	6.02E-02	-1.95E-01	-4.15E-02	5.67E-01	0.00E+00	0.00E+00	0.00E+00	0.00E+00
	2100000000	-4.01E-01	-4.65E-02	-2.80E-01	2.07E-01	0.00E+00	0.00E+00	0.00E+00	0.00E+00
	2150000000	-1.99E-01	4.67E-01	-5.01E-01	6.72E-02	0.00E+00	0.00E+00	0.00E+00	0.00E+00
	2200000000	2.58E-01	4.87E-01	-6.04E-01	-5.11E-02	0.00E+00	0.00E+00	0.00E+00	0.00E+00
	2250000000	5.11E-01	1.86E-01	-6.43E-01	-1.62E-01	0.00E+00	0.00E+00	0.00E+00	0.00E+00
	2300000000	4.65E-01	-1.57E-01	-6.18E-01	-2.70E-01	0.00E+00	0.00E+00	0.00E+00	0.00E+00
	2350000000	2.20E-01	-3.46E-01	-5.49E-01	-3.80E-01	0.00E+00	0.00E+00	0.00E+00	0.00E+00
	2400000000	-6.91E-02	-3.21E-01	-4.65E-01	-4.74E-01	0.00E+00	0.00E+00	0.00E+00	0.00E+00
	2450000000	-2.41E-01	-9.65E-02	-3.80E-01	-5.36E-01	0.00E+00	0.00E+00	0.00E+00	0.00E+00
	2500000000	-1.37E-01	1.25E-01	-3.13E-01	-5.08E-01	0.00E+00	0.00E+00	0.00E+00	0.00E+00
	2550000000	-1.73E-01	1.39E-01	-4.49E-02	-3.47E-01	0.00E+00	0.00E+00	0.00E+00	0.00E+00
	2600000000	3.58E-02	3.85E-01	1.99E-01	-4.07E-01	0.00E+00	0.00E+00	0.00E+00	0.00E+00
	2650000000	3.41E-01	2.76E-01	3.43E-01	-3.85E-01	0.00E+00	0.00E+00	0.00E+00	0.00E+00
	2700000000	4.21E-01	-1.24E-02	4.71E-01	-3.11E-01	0.00E+00	0.00E+00	0.00E+00	0.00E+00
	2750000000	2.68E-01	-2.24E-01	5.79E-01	-2.00E-01	0.00E+00	0.00E+00	0.00E+00	0.00E+00
	2800000000	4.74E-02	-2.41E-01	6.68E-01	-7.40E-02	0.00E+00	0.00E+00	0.00E+00	0.00E+00
	2850000000	-8.05E-02	-1.09E-01	7.16E-01	4.37E-02	0.00E+00	0.00E+00	0.00E+00	0.00E+00
	2900000000	-6.59E-02	3.60E-02	7.01E-01	1.66E-01	0.00E+00	0.00E+00	0.00E+00	0.00E+00
	2950000000	7.38E-03	9.35E-02	6.26E-01	3.34E-01	0.00E+00	0.00E+00	0.00E+00	0.00E+00
	3000000000	1.13E-01	1.39E-01	5.85E-01	4.94E-01	0.00E+00	0.00E+00	0.00E+00	0.00E+00
	3050000000	2.29E-01	6.52E-02	4.89E-01	6.09E-01	0.00E+00	0.00E+00	0.00E+00	0.00E+00
	3100000000	2.39E-01	-7.17E-02	3.59E-01	7.20E-01	0.00E+00	0.00E+00	0.00E+00	0.00E+00
	3150000000	1.40E-01	-1.52E-01	2.33E-01	8.06E-01	0.00E+00	0.00E+00	0.00E+00	0.00E+00
	3200000000	3.76E-02	-1.17E-01	9.59E-02	8.32E-01	0.00E+00	0.00E+00	0.00E+00	0.00E+00
	3250000000	1.79E-02	-3.45E-02	-6.19E-02	8.23E-01	0.00E+00	0.00E+00	0.00E+00	0.00E+00
	3300000000	5.63E-02	1.38E-02	-2.23E-01	7.90E-01	0.00E+00	0.00E+00	0.00E+00	0.00E+00
	3350000000	9.29E-02	1.91E-02	-3.68E-01	7.28E-01	0.00E+00	0.00E+00	0.00E+00	0.00E+00
	3400000000	9.69E-02	3.10E-02	-4.83E-01	6.47E-01	0.00E+00	0.00E+00	0.00E+00	0.00E+00
	3450000000	1.85E-01	9.65E-02	-5.06E-01	5.09E-01	0.00E+00	0.00E+00	0.00E+00	0.00E+00
	3500000000	2.81E-01	-6.43E-03	-5.67E-01	2.79E-01	0.00E+00	0.00E+00	0.00E+00	0.00E+00
	3550000000	2.71E-01	-1.55E-01	-6.38E-01	3.35E-02	0.00E+00	0.00E+00	0.00E+00	0.00E+00
	3600000000	1.47E-01	-2.01E-01	-7.12E-01	-1.38E-01	0.00E+00	0.00E+00	0.00E+00	0.00E+00
	3650000000	7.31E-02	-1.71E-01	-7.04E-01	-2.97E-01	0.00E+00	0.00E+00	0.00E+00	0.00E+00
	3700000000	2.15E-02	-1.33E-01	-6.51E-01	-4.71E-01	0.00E+00	0.00E+00	0.00E+00	0.00E+00
	3750000000	-1.42E-02	-6.01E-02	-5.81E-01	-6.20E-01	0.00E+00	0.00E+00	0.00E+00	0.00E+00
	3800000000	1.70E-02	2.40E-02	-4.74E-01	-7.18E-01	0.00E+00	0.00E+00	0.00E+00	0.00E+00
	3850000000	8.35E-02	4.15E-02	-3.08E-01	-7.94E-01	0.00E+00	0.00E+00	0.00E+00	0.00E+00
	3900000000	1.02E-01	3.79E-02	-1.37E-01	-8.54E-01	0.00E+00	0.00E+00	0.00E+00	0.00E+00
	3950000000	1.40E-01	8.60E-02	3.25E-02	-8.52E-01	0.00E+00	0.00E+00	0.00E+00	0.00E+00
	4000000000	2.75E-01	7.97E-02	2.35E-01	-8.03E-01	0.00E+00	0.00E+00	0.00E+00	0.00E+00
	4050000000	3.79E-01	-8.21E-02	4.41E-01	-7.54E-01	0.00E+00	0.00E+00	0.00E+00	0.00E+00
	4100000000	3.05E-01	-2.95E-01	5.86E-01	-6.78E-01	0.00E+00	0.00E+00	0.00E+00	0.00E+00
	4150000000	8.63E-02	-3.76E-01	7.16E-01	-5.32E-01	0.00E+00	0.00E+00	0.00E+00	0.00E+00
	4200000000	-9.34E-02	-2.71E-01	8.45E-01	-3.80E-01	0.00E+00	0.00E+00	0.00E+00	0.00E+00
	4250000000	-1.35E-01	-1.34E-01	9.09E-01	-2.34E-01	0.00E+00	0.00E+00	0.00E+00	0.00E+00
	4300000000	-1.49E-01	-3.12E-02	9.10E-01	-5.08E-02	0.00E+00	0.00E+00	0.00E+00	0.00E+00
	4350000000	-1.22E-01	1.38E-01	8.94E-01	1.32E-01	0.00E+00	0.00E+00	0.00E+00	0.00E+00
	4400000000	9.33E-02	2.79E-01	8.17E-01	2.96E-01	0.00E+00	0.00E+00	0.00E+00	0.00E+00
	4450000000	3.79E-01	1.71E-01	6.88E-01	4.71E-01	0.00E+00	0.00E+00	0.00E+00	0.00E+00
	4500000000	4.67E-01	-1.20E-01	5.52E-01	6.36E-01	0.00E+00	0.00E+00	0.00E+00	0.00E+00
	4550000000	3.12E-01	-3.45E-01	3.86E-01	7.40E-01	0.00E+00	0.00E+00	0.00E+00	0.00E+00
	4600000000	1.07E-01	-3.51E-01	1.86E-01	8.30E-01	0.00E+00	0.00E+00	0.00E+00	0.00E+00
	4650000000	3.69E-02	-3.04E-01	-1.16E-02	8.68E-01	0.00E+00	0.00E+00	0.00E+00	0.00E+00
	4700000000	-6.65E-02	-2.41E-01	-2.43E-01	8.82E-01	0.00E+00	0.00E+00	0.00E+00	0.00E+00
	4750000000	-1.08E-01	-1.67E-01	-4.25E-01	8.19E-01	0.00E+00	0.00E+00	0.00E+00	0.00E+00
	4800000000	-1.32E-01	-1.34E-03	-6.84E-01	7.38E-01	0.00E+00	0.00E+00	0.00E+00	0.00E+00
	4850000000	5.49E-02	1.33E-01	-9.22E-01	7.12E-01	0.00E+00	0.00E+00	0.00E+00	0.00E+00
	4900000000	2.49E-01	5.06E-03	-1.03E+00	6.78E-01	0.00E+00	0.00E+00	0.00E+00	0.00E+00
	4950000000	1.94E-01	-1.89E-01	-1.04E+00	5.46E-01	0.00E+00	0.00E+00	0.00E+00	0.00E+00
	5000000000	1.84E-02	-1.62E-01	-1.06E+00	3.58E-01	0.00E+00	0.00E+00	0.00E+00	0.00E+00
	5050000000	5.19E-02	1.18E-02	-1.08E+00	7.02E-02	0.00E+00	0.00E+00	0.00E+00	0.00E+00
	5100000000	2.52E-01	-1.96E-02	-1.08E+00	-2.34E-02	0.00E+00	0.00E+00	0.00E+00	0.00E+00
	5150000000	2.73E-01	-2.42E-01	-9.88E-01	-1.97E-01	0.00E+00	0.00E+00	0.00E+00	0.00E+00
	5200000000	7.43E-02	-3.49E-01	-8.70E-01	-3.70E-01	0.00E+00	0.00E+00	0.00E+00	0.00E+00
	5250000000	-7.52E-02	-2.36E-01	-7.43E-01	-5.41E-01	0.00E+00	0.00E+00	0.00E+00	0.00E+00
	5300000000	-3.85E-02	-1.47E-01	-6.01E-01	-6.81E-01	0.00E+00	0.00E+00	0.00E+00	0.00E+00
	5350000000	-5.74E-02	-1.85E-01	-4.55E-01	-7.39E-01	0.00E+00	0.00E+00	0.00E+00	0.00E+00
	5400000000	-1.60E-01	-1.09E-01	-2.43E-01	-7.94E-01	0.00E+00	0.00E+00	0.00E+00	0.00E+00
	5450000000	-9.78E-02	7.31E-02	-6.51E-02	-8.42E-01	0.00E+00	0.00E+00	0.00E+00	0.00E+00
	5500000000	1.25E-01	6.60E-02	6.54E-02	-8.05E-01	0.00E+00	0.00E+00	0.00E+00	0.00E+00
	5550000000	1.86E-01	-1.29E-01	2.39E-01	-6.88E-01	0.00E+00	0.00E+00	0.00E+00	0.00E+00
	5600000000	4.52E-02	-2.04E-01	3.97E-01	-5.59E-01	0.00E+00	0.00E+00	0.00E+00	0.00E+00
	5650000000	3.87E-02	-1.37E-01	5.49E-01	-4.09E-01	0.00E+00	0.00E+00	0.00E+00	0.00E+00
	5700000000	8.81E-02	-1.45E-01	6.59E-01	-2.72E-01	0.00E+00	0.00E+00	0.00E+00	0.00E+00
	5750000000	1.23E-01	-2.29E-01	7.10E-01	-1.12E-01	0.00E+00	0.00E+00	0.00E+00	0.00E+00
	5800000000	5.61E-02	-3.22E-01	7.31E-01	5.23E-02	0.00E+00	0.00E+00	0.00E+00	0.00E+00
	5850000000	-6.16E-02	-3.18E-01	7.01E-01	2.16E-01	0.00E+00	0.00E+00	0.00E+00	0.00E+00
	5900000000	-8.07E-02	-2.24E-01	6.57E-01	3.84E-01	0.00E+00	0.00E+00	0.00E+00	0.00E+00
	5950000000	-1.10E-02	-2.35E-01	5.93E-01	4.96E-01	0.00E+00	0.00E+00	0.00E+00	0.00E+00
	6000000000	-1.22E-01	-2.77E-01	7.42E-01	4.01E-02	0.00E+00	0.00E+00	0.00E+00	0.00E+00
