! NanoVNA-App									
! Date: 2024-03-20 23:51:48									
! Start: 1GHz Stop: 6GHz Points: 101									
! S-Parameter data: F S11 S21 S12 S22									
# Hz S RI R 50									
!	Frequency	S11_Real	S11_Imag	S21_Real	S21_Imag	S12_Real	S12_Imag	S22_Real	S22_Imag
	1000000000	1.22E-01	-2.34E-02	-5.56E-01	-8.78E-01	0.00E+00	0.00E+00	0.00E+00	0.00E+00
	1050000000	5.25E-02	-2.27E-02	-3.74E-01	-9.65E-01	0.00E+00	0.00E+00	0.00E+00	0.00E+00
	1100000000	4.97E-02	-1.12E-02	-1.68E-01	-1.02E+00	0.00E+00	0.00E+00	0.00E+00	0.00E+00
	1150000000	3.02E-02	-4.66E-02	3.72E-02	-1.03E+00	0.00E+00	0.00E+00	0.00E+00	0.00E+00
	1200000000	-5.00E-02	-3.65E-02	2.45E-01	-9.89E-01	0.00E+00	0.00E+00	0.00E+00	0.00E+00
	1250000000	-7.78E-02	6.66E-02	4.50E-01	-9.10E-01	0.00E+00	0.00E+00	0.00E+00	0.00E+00
	1300000000	1.54E-02	1.35E-01	6.31E-01	-8.02E-01	0.00E+00	0.00E+00	0.00E+00	0.00E+00
	1350000000	1.01E-01	6.57E-02	7.72E-01	-6.55E-01	0.00E+00	0.00E+00	0.00E+00	0.00E+00
	1400000000	7.32E-02	4.65E-03	9.01E-01	-4.82E-01	0.00E+00	0.00E+00	0.00E+00	0.00E+00
	1450000000	1.77E-02	2.20E-02	9.74E-01	-3.00E-01	0.00E+00	0.00E+00	0.00E+00	0.00E+00
	1500000000	5.25E-02	6.40E-02	1.00E+00	-1.02E-01	0.00E+00	0.00E+00	0.00E+00	0.00E+00
	1550000000	9.57E-02	6.51E-03	9.92E-01	1.02E-01	0.00E+00	0.00E+00	0.00E+00	0.00E+00
	1600000000	1.37E-02	-5.63E-02	9.43E-01	2.94E-01	0.00E+00	0.00E+00	0.00E+00	0.00E+00
	1650000000	-9.22E-02	3.79E-02	8.58E-01	4.63E-01	0.00E+00	0.00E+00	0.00E+00	0.00E+00
	1700000000	-2.39E-02	1.97E-01	7.31E-01	6.06E-01	0.00E+00	0.00E+00	0.00E+00	0.00E+00
	1750000000	1.62E-01	1.97E-01	5.75E-01	7.38E-01	0.00E+00	0.00E+00	0.00E+00	0.00E+00
	1800000000	2.38E-01	4.07E-02	4.23E-01	8.45E-01	0.00E+00	0.00E+00	0.00E+00	0.00E+00
	1850000000	1.52E-01	-7.35E-02	2.68E-01	8.99E-01	0.00E+00	0.00E+00	0.00E+00	0.00E+00
	1900000000	6.31E-02	-5.58E-02	1.23E-01	9.14E-01	0.00E+00	0.00E+00	0.00E+00	0.00E+00
	1950000000	5.21E-02	-2.02E-02	4.87E-03	8.92E-01	0.00E+00	0.00E+00	0.00E+00	0.00E+00
	2000000000	7.57E-02	-2.03E-02	-5.08E-02	8.09E-01	0.00E+00	0.00E+00	0.00E+00	0.00E+00
	2050000000	5.92E-02	-1.92E-01	-3.71E-02	5.64E-01	0.00E+00	0.00E+00	0.00E+00	0.00E+00
	2100000000	-3.94E-01	-4.13E-02	-2.82E-01	2.01E-01	0.00E+00	0.00E+00	0.00E+00	0.00E+00
	2150000000	-1.95E-01	4.67E-01	-4.99E-01	6.51E-02	0.00E+00	0.00E+00	0.00E+00	0.00E+00
	2200000000	2.62E-01	4.84E-01	-6.00E-01	-5.26E-02	0.00E+00	0.00E+00	0.00E+00	0.00E+00
	2250000000	5.13E-01	1.82E-01	-6.38E-01	-1.62E-01	0.00E+00	0.00E+00	0.00E+00	0.00E+00
	2300000000	4.63E-01	-1.62E-01	-6.11E-01	-2.70E-01	0.00E+00	0.00E+00	0.00E+00	0.00E+00
	2350000000	2.14E-01	-3.51E-01	-5.43E-01	-3.79E-01	0.00E+00	0.00E+00	0.00E+00	0.00E+00
	2400000000	-7.65E-02	-3.16E-01	-4.56E-01	-4.72E-01	0.00E+00	0.00E+00	0.00E+00	0.00E+00
	2450000000	-2.42E-01	-8.62E-02	-3.70E-01	-5.33E-01	0.00E+00	0.00E+00	0.00E+00	0.00E+00
	2500000000	-1.29E-01	1.31E-01	-3.04E-01	-5.02E-01	0.00E+00	0.00E+00	0.00E+00	0.00E+00
	2550000000	-1.64E-01	1.39E-01	-3.39E-02	-3.40E-01	0.00E+00	0.00E+00	0.00E+00	0.00E+00
	2600000000	4.29E-02	3.77E-01	2.12E-01	-4.01E-01	0.00E+00	0.00E+00	0.00E+00	0.00E+00
	2650000000	3.39E-01	2.65E-01	3.55E-01	-3.80E-01	0.00E+00	0.00E+00	0.00E+00	0.00E+00
	2700000000	4.11E-01	-1.48E-02	4.81E-01	-3.01E-01	0.00E+00	0.00E+00	0.00E+00	0.00E+00
	2750000000	2.58E-01	-2.20E-01	5.89E-01	-1.92E-01	0.00E+00	0.00E+00	0.00E+00	0.00E+00
	2800000000	3.99E-02	-2.26E-01	6.72E-01	-7.01E-02	0.00E+00	0.00E+00	0.00E+00	0.00E+00
	2850000000	-7.33E-02	-9.94E-02	7.22E-01	5.18E-02	0.00E+00	0.00E+00	0.00E+00	0.00E+00
	2900000000	-5.41E-02	3.56E-02	7.04E-01	1.76E-01	0.00E+00	0.00E+00	0.00E+00	0.00E+00
	2950000000	1.37E-02	8.48E-02	6.31E-01	3.48E-01	0.00E+00	0.00E+00	0.00E+00	0.00E+00
	3000000000	1.10E-01	1.31E-01	5.87E-01	5.04E-01	0.00E+00	0.00E+00	0.00E+00	0.00E+00
	3050000000	2.22E-01	6.29E-02	4.89E-01	6.19E-01	0.00E+00	0.00E+00	0.00E+00	0.00E+00
	3100000000	2.33E-01	-6.87E-02	3.57E-01	7.28E-01	0.00E+00	0.00E+00	0.00E+00	0.00E+00
	3150000000	1.38E-01	-1.48E-01	2.32E-01	8.12E-01	0.00E+00	0.00E+00	0.00E+00	0.00E+00
	3200000000	3.94E-02	-1.13E-01	9.32E-02	8.39E-01	0.00E+00	0.00E+00	0.00E+00	0.00E+00
	3250000000	2.19E-02	-3.27E-02	-6.99E-02	8.28E-01	0.00E+00	0.00E+00	0.00E+00	0.00E+00
	3300000000	5.91E-02	1.22E-02	-2.28E-01	7.95E-01	0.00E+00	0.00E+00	0.00E+00	0.00E+00
	3350000000	9.26E-02	1.73E-02	-3.73E-01	7.30E-01	0.00E+00	0.00E+00	0.00E+00	0.00E+00
	3400000000	9.70E-02	3.01E-02	-4.86E-01	6.48E-01	0.00E+00	0.00E+00	0.00E+00	0.00E+00
	3450000000	1.85E-01	9.55E-02	-5.10E-01	5.04E-01	0.00E+00	0.00E+00	0.00E+00	0.00E+00
	3500000000	2.80E-01	-9.25E-03	-5.73E-01	2.73E-01	0.00E+00	0.00E+00	0.00E+00	0.00E+00
	3550000000	2.66E-01	-1.57E-01	-6.49E-01	2.44E-02	0.00E+00	0.00E+00	0.00E+00	0.00E+00
	3600000000	1.43E-01	-1.96E-01	-7.22E-01	-1.46E-01	0.00E+00	0.00E+00	0.00E+00	0.00E+00
	3650000000	7.51E-02	-1.66E-01	-7.12E-01	-3.04E-01	0.00E+00	0.00E+00	0.00E+00	0.00E+00
	3700000000	2.62E-02	-1.32E-01	-6.59E-01	-4.76E-01	0.00E+00	0.00E+00	0.00E+00	0.00E+00
	3750000000	-1.05E-02	-6.23E-02	-5.88E-01	-6.25E-01	0.00E+00	0.00E+00	0.00E+00	0.00E+00
	3800000000	1.85E-02	1.98E-02	-4.78E-01	-7.26E-01	0.00E+00	0.00E+00	0.00E+00	0.00E+00
	3850000000	8.20E-02	3.79E-02	-3.14E-01	-8.02E-01	0.00E+00	0.00E+00	0.00E+00	0.00E+00
	3900000000	9.68E-02	3.72E-02	-1.36E-01	-8.61E-01	0.00E+00	0.00E+00	0.00E+00	0.00E+00
	3950000000	1.36E-01	8.86E-02	2.99E-02	-8.59E-01	0.00E+00	0.00E+00	0.00E+00	0.00E+00
	4000000000	2.76E-01	8.44E-02	2.37E-01	-8.08E-01	0.00E+00	0.00E+00	0.00E+00	0.00E+00
	4050000000	3.82E-01	-8.05E-02	4.42E-01	-7.58E-01	0.00E+00	0.00E+00	0.00E+00	0.00E+00
	4100000000	3.08E-01	-2.96E-01	5.87E-01	-6.82E-01	0.00E+00	0.00E+00	0.00E+00	0.00E+00
	4150000000	8.72E-02	-3.78E-01	7.17E-01	-5.35E-01	0.00E+00	0.00E+00	0.00E+00	0.00E+00
	4200000000	-9.32E-02	-2.74E-01	8.48E-01	-3.79E-01	0.00E+00	0.00E+00	0.00E+00	0.00E+00
	4250000000	-1.36E-01	-1.34E-01	9.09E-01	-2.39E-01	0.00E+00	0.00E+00	0.00E+00	0.00E+00
	4300000000	-1.51E-01	-3.17E-02	9.12E-01	-5.08E-02	0.00E+00	0.00E+00	0.00E+00	0.00E+00
	4350000000	-1.23E-01	1.40E-01	8.96E-01	1.33E-01	0.00E+00	0.00E+00	0.00E+00	0.00E+00
	4400000000	9.44E-02	2.81E-01	8.18E-01	2.98E-01	0.00E+00	0.00E+00	0.00E+00	0.00E+00
	4450000000	3.81E-01	1.73E-01	6.89E-01	4.72E-01	0.00E+00	0.00E+00	0.00E+00	0.00E+00
	4500000000	4.69E-01	-1.19E-01	5.51E-01	6.38E-01	0.00E+00	0.00E+00	0.00E+00	0.00E+00
	4550000000	3.13E-01	-3.45E-01	3.86E-01	7.42E-01	0.00E+00	0.00E+00	0.00E+00	0.00E+00
	4600000000	1.08E-01	-3.53E-01	1.83E-01	8.30E-01	0.00E+00	0.00E+00	0.00E+00	0.00E+00
	4650000000	3.45E-02	-3.05E-01	-1.76E-02	8.71E-01	0.00E+00	0.00E+00	0.00E+00	0.00E+00
	4700000000	-6.87E-02	-2.40E-01	-2.46E-01	8.84E-01	0.00E+00	0.00E+00	0.00E+00	0.00E+00
	4750000000	-1.09E-01	-1.65E-01	-4.31E-01	8.18E-01	0.00E+00	0.00E+00	0.00E+00	0.00E+00
	4800000000	-1.32E-01	7.89E-04	-6.90E-01	7.35E-01	0.00E+00	0.00E+00	0.00E+00	0.00E+00
	4850000000	5.58E-02	1.36E-01	-9.27E-01	7.12E-01	0.00E+00	0.00E+00	0.00E+00	0.00E+00
	4900000000	2.52E-01	6.84E-03	-1.03E+00	6.73E-01	0.00E+00	0.00E+00	0.00E+00	0.00E+00
	4950000000	1.97E-01	-1.90E-01	-1.05E+00	5.42E-01	0.00E+00	0.00E+00	0.00E+00	0.00E+00
	5000000000	1.85E-02	-1.66E-01	-1.06E+00	3.51E-01	0.00E+00	0.00E+00	0.00E+00	0.00E+00
	5050000000	4.77E-02	1.01E-02	-1.08E+00	6.69E-02	0.00E+00	0.00E+00	0.00E+00	0.00E+00
	5100000000	2.49E-01	-1.76E-02	-1.08E+00	-3.12E-02	0.00E+00	0.00E+00	0.00E+00	0.00E+00
	5150000000	2.72E-01	-2.41E-01	-9.93E-01	-2.01E-01	0.00E+00	0.00E+00	0.00E+00	0.00E+00
	5200000000	7.28E-02	-3.47E-01	-8.73E-01	-3.77E-01	0.00E+00	0.00E+00	0.00E+00	0.00E+00
	5250000000	-7.52E-02	-2.33E-01	-7.45E-01	-5.43E-01	0.00E+00	0.00E+00	0.00E+00	0.00E+00
	5300000000	-3.62E-02	-1.45E-01	-6.04E-01	-6.86E-01	0.00E+00	0.00E+00	0.00E+00	0.00E+00
	5350000000	-5.38E-02	-1.88E-01	-4.53E-01	-7.45E-01	0.00E+00	0.00E+00	0.00E+00	0.00E+00
	5400000000	-1.60E-01	-1.14E-01	-2.36E-01	-7.99E-01	0.00E+00	0.00E+00	0.00E+00	0.00E+00
	5450000000	-1.02E-01	7.25E-02	-6.48E-02	-8.45E-01	0.00E+00	0.00E+00	0.00E+00	0.00E+00
	5500000000	1.23E-01	6.74E-02	7.01E-02	-8.08E-01	0.00E+00	0.00E+00	0.00E+00	0.00E+00
	5550000000	1.82E-01	-1.28E-01	2.39E-01	-6.91E-01	0.00E+00	0.00E+00	0.00E+00	0.00E+00
	5600000000	4.61E-02	-2.01E-01	4.00E-01	-5.59E-01	0.00E+00	0.00E+00	0.00E+00	0.00E+00
	5650000000	3.89E-02	-1.36E-01	5.51E-01	-4.10E-01	0.00E+00	0.00E+00	0.00E+00	0.00E+00
	5700000000	8.95E-02	-1.45E-01	6.62E-01	-2.71E-01	0.00E+00	0.00E+00	0.00E+00	0.00E+00
	5750000000	1.21E-01	-2.29E-01	7.12E-01	-1.12E-01	0.00E+00	0.00E+00	0.00E+00	0.00E+00
	5800000000	5.79E-02	-3.23E-01	7.33E-01	5.89E-02	0.00E+00	0.00E+00	0.00E+00	0.00E+00
	5850000000	-6.39E-02	-3.17E-01	7.03E-01	2.20E-01	0.00E+00	0.00E+00	0.00E+00	0.00E+00
	5900000000	-8.28E-02	-2.22E-01	6.59E-01	3.88E-01	0.00E+00	0.00E+00	0.00E+00	0.00E+00
	5950000000	-1.06E-02	-2.33E-01	5.91E-01	5.01E-01	0.00E+00	0.00E+00	0.00E+00	0.00E+00
	6000000000	-1.23E-01	-2.75E-01	7.44E-01	4.41E-02	0.00E+00	0.00E+00	0.00E+00	0.00E+00
