! NanoVNA-App									
! Date: 2024-03-21 03:00:40									
! Start: 1GHz Stop: 6GHz Points: 101									
! S-Parameter data: F S11 S21 S12 S22									
# Hz S RI R 50									
!	Frequency	S11_Real	S11_Imag	S21_Real	S21_Imag	S12_Real	S12_Imag	S22_Real	S22_Imag
	1000000000	1.21E-01	-2.29E-02	-5.57E-01	-8.78E-01	0.00E+00	0.00E+00	0.00E+00	0.00E+00
	1050000000	5.24E-02	-2.23E-02	-3.75E-01	-9.65E-01	0.00E+00	0.00E+00	0.00E+00	0.00E+00
	1100000000	4.96E-02	-1.14E-02	-1.68E-01	-1.02E+00	0.00E+00	0.00E+00	0.00E+00	0.00E+00
	1150000000	2.96E-02	-4.69E-02	3.63E-02	-1.03E+00	0.00E+00	0.00E+00	0.00E+00	0.00E+00
	1200000000	-5.07E-02	-3.65E-02	2.43E-01	-9.89E-01	0.00E+00	0.00E+00	0.00E+00	0.00E+00
	1250000000	-7.80E-02	6.65E-02	4.49E-01	-9.11E-01	0.00E+00	0.00E+00	0.00E+00	0.00E+00
	1300000000	1.48E-02	1.34E-01	6.31E-01	-8.02E-01	0.00E+00	0.00E+00	0.00E+00	0.00E+00
	1350000000	9.98E-02	6.55E-02	7.71E-01	-6.56E-01	0.00E+00	0.00E+00	0.00E+00	0.00E+00
	1400000000	7.25E-02	4.75E-03	9.02E-01	-4.84E-01	0.00E+00	0.00E+00	0.00E+00	0.00E+00
	1450000000	1.72E-02	2.27E-02	9.74E-01	-3.00E-01	0.00E+00	0.00E+00	0.00E+00	0.00E+00
	1500000000	5.28E-02	6.44E-02	1.00E+00	-1.02E-01	0.00E+00	0.00E+00	0.00E+00	0.00E+00
	1550000000	9.62E-02	6.36E-03	9.92E-01	1.01E-01	0.00E+00	0.00E+00	0.00E+00	0.00E+00
	1600000000	1.41E-02	-5.71E-02	9.43E-01	2.95E-01	0.00E+00	0.00E+00	0.00E+00	0.00E+00
	1650000000	-9.17E-02	3.66E-02	8.59E-01	4.62E-01	0.00E+00	0.00E+00	0.00E+00	0.00E+00
	1700000000	-2.44E-02	1.95E-01	7.31E-01	6.07E-01	0.00E+00	0.00E+00	0.00E+00	0.00E+00
	1750000000	1.59E-01	1.96E-01	5.74E-01	7.38E-01	0.00E+00	0.00E+00	0.00E+00	0.00E+00
	1800000000	2.35E-01	4.08E-02	4.23E-01	8.46E-01	0.00E+00	0.00E+00	0.00E+00	0.00E+00
	1850000000	1.52E-01	-7.13E-02	2.69E-01	9.01E-01	0.00E+00	0.00E+00	0.00E+00	0.00E+00
	1900000000	6.46E-02	-5.40E-02	1.24E-01	9.13E-01	0.00E+00	0.00E+00	0.00E+00	0.00E+00
	1950000000	5.43E-02	-2.02E-02	4.96E-03	8.95E-01	0.00E+00	0.00E+00	0.00E+00	0.00E+00
	2000000000	7.77E-02	-2.16E-02	-4.87E-02	8.11E-01	0.00E+00	0.00E+00	0.00E+00	0.00E+00
	2050000000	6.13E-02	-1.95E-01	-3.97E-02	5.61E-01	0.00E+00	0.00E+00	0.00E+00	0.00E+00
	2100000000	-3.99E-01	-4.50E-02	-2.82E-01	2.03E-01	0.00E+00	0.00E+00	0.00E+00	0.00E+00
	2150000000	-1.96E-01	4.66E-01	-5.01E-01	6.51E-02	0.00E+00	0.00E+00	0.00E+00	0.00E+00
	2200000000	2.60E-01	4.84E-01	-6.02E-01	-5.19E-02	0.00E+00	0.00E+00	0.00E+00	0.00E+00
	2250000000	5.11E-01	1.84E-01	-6.40E-01	-1.62E-01	0.00E+00	0.00E+00	0.00E+00	0.00E+00
	2300000000	4.64E-01	-1.59E-01	-6.15E-01	-2.71E-01	0.00E+00	0.00E+00	0.00E+00	0.00E+00
	2350000000	2.17E-01	-3.46E-01	-5.45E-01	-3.82E-01	0.00E+00	0.00E+00	0.00E+00	0.00E+00
	2400000000	-7.09E-02	-3.19E-01	-4.61E-01	-4.76E-01	0.00E+00	0.00E+00	0.00E+00	0.00E+00
	2450000000	-2.39E-01	-9.27E-02	-3.73E-01	-5.37E-01	0.00E+00	0.00E+00	0.00E+00	0.00E+00
	2500000000	-1.32E-01	1.25E-01	-3.10E-01	-5.06E-01	0.00E+00	0.00E+00	0.00E+00	0.00E+00
	2550000000	-1.72E-01	1.37E-01	-3.63E-02	-3.45E-01	0.00E+00	0.00E+00	0.00E+00	0.00E+00
	2600000000	3.81E-02	3.80E-01	2.09E-01	-4.07E-01	0.00E+00	0.00E+00	0.00E+00	0.00E+00
	2650000000	3.38E-01	2.71E-01	3.53E-01	-3.87E-01	0.00E+00	0.00E+00	0.00E+00	0.00E+00
	2700000000	4.16E-01	-7.83E-03	4.80E-01	-3.04E-01	0.00E+00	0.00E+00	0.00E+00	0.00E+00
	2750000000	2.66E-01	-2.19E-01	5.87E-01	-1.97E-01	0.00E+00	0.00E+00	0.00E+00	0.00E+00
	2800000000	4.62E-02	-2.31E-01	6.72E-01	-7.65E-02	0.00E+00	0.00E+00	0.00E+00	0.00E+00
	2850000000	-7.29E-02	-1.07E-01	7.23E-01	4.46E-02	0.00E+00	0.00E+00	0.00E+00	0.00E+00
	2900000000	-5.95E-02	3.11E-02	7.07E-01	1.70E-01	0.00E+00	0.00E+00	0.00E+00	0.00E+00
	2950000000	7.42E-03	8.59E-02	6.30E-01	3.42E-01	0.00E+00	0.00E+00	0.00E+00	0.00E+00
	3000000000	1.07E-01	1.35E-01	5.90E-01	4.95E-01	0.00E+00	0.00E+00	0.00E+00	0.00E+00
	3050000000	2.22E-01	6.74E-02	4.94E-01	6.12E-01	0.00E+00	0.00E+00	0.00E+00	0.00E+00
	3100000000	2.37E-01	-6.57E-02	3.65E-01	7.21E-01	0.00E+00	0.00E+00	0.00E+00	0.00E+00
	3150000000	1.43E-01	-1.47E-01	2.37E-01	8.07E-01	0.00E+00	0.00E+00	0.00E+00	0.00E+00
	3200000000	4.36E-02	-1.16E-01	9.89E-02	8.35E-01	0.00E+00	0.00E+00	0.00E+00	0.00E+00
	3250000000	2.23E-02	-3.80E-02	-6.27E-02	8.24E-01	0.00E+00	0.00E+00	0.00E+00	0.00E+00
	3300000000	5.59E-02	9.01E-03	-2.24E-01	7.90E-01	0.00E+00	0.00E+00	0.00E+00	0.00E+00
	3350000000	8.88E-02	1.75E-02	-3.67E-01	7.28E-01	0.00E+00	0.00E+00	0.00E+00	0.00E+00
	3400000000	9.48E-02	3.22E-02	-4.81E-01	6.48E-01	0.00E+00	0.00E+00	0.00E+00	0.00E+00
	3450000000	1.85E-01	9.71E-02	-5.08E-01	5.06E-01	0.00E+00	0.00E+00	0.00E+00	0.00E+00
	3500000000	2.77E-01	-4.69E-03	-5.71E-01	2.80E-01	0.00E+00	0.00E+00	0.00E+00	0.00E+00
	3550000000	2.71E-01	-1.48E-01	-6.42E-01	3.59E-02	0.00E+00	0.00E+00	0.00E+00	0.00E+00
	3600000000	1.54E-01	-1.99E-01	-7.12E-01	-1.34E-01	0.00E+00	0.00E+00	0.00E+00	0.00E+00
	3650000000	7.79E-02	-1.76E-01	-7.03E-01	-2.94E-01	0.00E+00	0.00E+00	0.00E+00	0.00E+00
	3700000000	1.94E-02	-1.38E-01	-6.49E-01	-4.69E-01	0.00E+00	0.00E+00	0.00E+00	0.00E+00
	3750000000	-1.91E-02	-6.20E-02	-5.79E-01	-6.18E-01	0.00E+00	0.00E+00	0.00E+00	0.00E+00
	3800000000	1.28E-02	2.69E-02	-4.72E-01	-7.17E-01	0.00E+00	0.00E+00	0.00E+00	0.00E+00
	3850000000	8.27E-02	4.51E-02	-3.08E-01	-7.93E-01	0.00E+00	0.00E+00	0.00E+00	0.00E+00
	3900000000	1.04E-01	4.00E-02	-1.32E-01	-8.52E-01	0.00E+00	0.00E+00	0.00E+00	0.00E+00
	3950000000	1.41E-01	8.47E-02	3.63E-02	-8.52E-01	0.00E+00	0.00E+00	0.00E+00	0.00E+00
	4000000000	2.75E-01	7.89E-02	2.40E-01	-8.03E-01	0.00E+00	0.00E+00	0.00E+00	0.00E+00
	4050000000	3.79E-01	-8.28E-02	4.44E-01	-7.54E-01	0.00E+00	0.00E+00	0.00E+00	0.00E+00
	4100000000	3.05E-01	-2.96E-01	5.88E-01	-6.79E-01	0.00E+00	0.00E+00	0.00E+00	0.00E+00
	4150000000	8.61E-02	-3.77E-01	7.18E-01	-5.32E-01	0.00E+00	0.00E+00	0.00E+00	0.00E+00
	4200000000	-9.39E-02	-2.72E-01	8.48E-01	-3.78E-01	0.00E+00	0.00E+00	0.00E+00	0.00E+00
	4250000000	-1.35E-01	-1.34E-01	9.11E-01	-2.34E-01	0.00E+00	0.00E+00	0.00E+00	0.00E+00
	4300000000	-1.49E-01	-3.20E-02	9.13E-01	-4.78E-02	0.00E+00	0.00E+00	0.00E+00	0.00E+00
	4350000000	-1.23E-01	1.38E-01	8.96E-01	1.33E-01	0.00E+00	0.00E+00	0.00E+00	0.00E+00
	4400000000	9.31E-02	2.79E-01	8.18E-01	2.97E-01	0.00E+00	0.00E+00	0.00E+00	0.00E+00
	4450000000	3.80E-01	1.72E-01	6.90E-01	4.69E-01	0.00E+00	0.00E+00	0.00E+00	0.00E+00
	4500000000	4.68E-01	-1.21E-01	5.56E-01	6.31E-01	0.00E+00	0.00E+00	0.00E+00	0.00E+00
	4550000000	3.13E-01	-3.46E-01	3.88E-01	7.39E-01	0.00E+00	0.00E+00	0.00E+00	0.00E+00
	4600000000	1.08E-01	-3.52E-01	1.79E-01	8.30E-01	0.00E+00	0.00E+00	0.00E+00	0.00E+00
	4650000000	3.54E-02	-3.04E-01	-1.41E-02	8.69E-01	0.00E+00	0.00E+00	0.00E+00	0.00E+00
	4700000000	-6.56E-02	-2.41E-01	-2.44E-01	8.84E-01	0.00E+00	0.00E+00	0.00E+00	0.00E+00
	4750000000	-1.07E-01	-1.67E-01	-4.30E-01	8.17E-01	0.00E+00	0.00E+00	0.00E+00	0.00E+00
	4800000000	-1.32E-01	-1.40E-03	-6.85E-01	7.37E-01	0.00E+00	0.00E+00	0.00E+00	0.00E+00
	4850000000	5.51E-02	1.32E-01	-9.24E-01	7.10E-01	0.00E+00	0.00E+00	0.00E+00	0.00E+00
	4900000000	2.50E-01	5.19E-03	-1.03E+00	6.74E-01	0.00E+00	0.00E+00	0.00E+00	0.00E+00
	4950000000	1.95E-01	-1.90E-01	-1.04E+00	5.51E-01	0.00E+00	0.00E+00	0.00E+00	0.00E+00
	5000000000	1.89E-02	-1.64E-01	-1.06E+00	3.53E-01	0.00E+00	0.00E+00	0.00E+00	0.00E+00
	5050000000	5.11E-02	1.03E-02	-1.08E+00	6.82E-02	0.00E+00	0.00E+00	0.00E+00	0.00E+00
	5100000000	2.52E-01	-1.92E-02	-1.08E+00	-2.83E-02	0.00E+00	0.00E+00	0.00E+00	0.00E+00
	5150000000	2.73E-01	-2.43E-01	-9.89E-01	-2.01E-01	0.00E+00	0.00E+00	0.00E+00	0.00E+00
	5200000000	7.33E-02	-3.49E-01	-8.71E-01	-3.70E-01	0.00E+00	0.00E+00	0.00E+00	0.00E+00
	5250000000	-7.46E-02	-2.34E-01	-7.44E-01	-5.41E-01	0.00E+00	0.00E+00	0.00E+00	0.00E+00
	5300000000	-3.62E-02	-1.46E-01	-6.01E-01	-6.83E-01	0.00E+00	0.00E+00	0.00E+00	0.00E+00
	5350000000	-5.42E-02	-1.87E-01	-4.53E-01	-7.41E-01	0.00E+00	0.00E+00	0.00E+00	0.00E+00
	5400000000	-1.59E-01	-1.12E-01	-2.41E-01	-7.94E-01	0.00E+00	0.00E+00	0.00E+00	0.00E+00
	5450000000	-9.93E-02	7.16E-02	-6.71E-02	-8.42E-01	0.00E+00	0.00E+00	0.00E+00	0.00E+00
	5500000000	1.24E-01	6.52E-02	6.69E-02	-8.06E-01	0.00E+00	0.00E+00	0.00E+00	0.00E+00
	5550000000	1.84E-01	-1.29E-01	2.39E-01	-6.90E-01	0.00E+00	0.00E+00	0.00E+00	0.00E+00
	5600000000	4.42E-02	-2.02E-01	3.97E-01	-5.58E-01	0.00E+00	0.00E+00	0.00E+00	0.00E+00
	5650000000	3.89E-02	-1.38E-01	5.51E-01	-4.10E-01	0.00E+00	0.00E+00	0.00E+00	0.00E+00
	5700000000	8.62E-02	-1.44E-01	6.61E-01	-2.72E-01	0.00E+00	0.00E+00	0.00E+00	0.00E+00
	5750000000	1.25E-01	-2.27E-01	7.11E-01	-1.13E-01	0.00E+00	0.00E+00	0.00E+00	0.00E+00
	5800000000	6.17E-02	-3.22E-01	7.32E-01	5.57E-02	0.00E+00	0.00E+00	0.00E+00	0.00E+00
	5850000000	-5.94E-02	-3.20E-01	7.01E-01	2.19E-01	0.00E+00	0.00E+00	0.00E+00	0.00E+00
	5900000000	-8.17E-02	-2.26E-01	6.58E-01	3.87E-01	0.00E+00	0.00E+00	0.00E+00	0.00E+00
	5950000000	-9.82E-03	-2.35E-01	5.89E-01	5.02E-01	0.00E+00	0.00E+00	0.00E+00	0.00E+00
	6000000000	-1.19E-01	-2.76E-01	7.44E-01	4.51E-02	0.00E+00	0.00E+00	0.00E+00	0.00E+00
