! NanoVNA-App									
! Date: 2024-03-21 00:34:35									
! Start: 1GHz Stop: 6GHz Points: 101									
! S-Parameter data: F S11 S21 S12 S22									
# Hz S RI R 50									
!	Frequency	S11_Real	S11_Imag	S21_Real	S21_Imag	S12_Real	S12_Imag	S22_Real	S22_Imag
	1000000000	1.22E-01	-2.34E-02	-5.56E-01	-8.77E-01	0.00E+00	0.00E+00	0.00E+00	0.00E+00
	1050000000	5.23E-02	-2.26E-02	-3.75E-01	-9.64E-01	0.00E+00	0.00E+00	0.00E+00	0.00E+00
	1100000000	4.94E-02	-1.13E-02	-1.69E-01	-1.02E+00	0.00E+00	0.00E+00	0.00E+00	0.00E+00
	1150000000	2.97E-02	-4.65E-02	3.64E-02	-1.03E+00	0.00E+00	0.00E+00	0.00E+00	0.00E+00
	1200000000	-5.05E-02	-3.62E-02	2.43E-01	-9.89E-01	0.00E+00	0.00E+00	0.00E+00	0.00E+00
	1250000000	-7.77E-02	6.68E-02	4.48E-01	-9.10E-01	0.00E+00	0.00E+00	0.00E+00	0.00E+00
	1300000000	1.54E-02	1.35E-01	6.30E-01	-8.02E-01	0.00E+00	0.00E+00	0.00E+00	0.00E+00
	1350000000	1.01E-01	6.54E-02	7.71E-01	-6.54E-01	0.00E+00	0.00E+00	0.00E+00	0.00E+00
	1400000000	7.31E-02	4.62E-03	9.00E-01	-4.83E-01	0.00E+00	0.00E+00	0.00E+00	0.00E+00
	1450000000	1.77E-02	2.19E-02	9.74E-01	-3.00E-01	0.00E+00	0.00E+00	0.00E+00	0.00E+00
	1500000000	5.25E-02	6.37E-02	1.00E+00	-1.03E-01	0.00E+00	0.00E+00	0.00E+00	0.00E+00
	1550000000	9.53E-02	5.88E-03	9.91E-01	9.87E-02	0.00E+00	0.00E+00	0.00E+00	0.00E+00
	1600000000	1.26E-02	-5.64E-02	9.46E-01	2.94E-01	0.00E+00	0.00E+00	0.00E+00	0.00E+00
	1650000000	-9.26E-02	3.84E-02	8.58E-01	4.62E-01	0.00E+00	0.00E+00	0.00E+00	0.00E+00
	1700000000	-2.36E-02	1.97E-01	7.31E-01	6.04E-01	0.00E+00	0.00E+00	0.00E+00	0.00E+00
	1750000000	1.62E-01	1.97E-01	5.75E-01	7.36E-01	0.00E+00	0.00E+00	0.00E+00	0.00E+00
	1800000000	2.38E-01	4.10E-02	4.24E-01	8.44E-01	0.00E+00	0.00E+00	0.00E+00	0.00E+00
	1850000000	1.53E-01	-7.31E-02	2.68E-01	9.00E-01	0.00E+00	0.00E+00	0.00E+00	0.00E+00
	1900000000	6.40E-02	-5.62E-02	1.26E-01	9.14E-01	0.00E+00	0.00E+00	0.00E+00	0.00E+00
	1950000000	5.29E-02	-2.18E-02	7.57E-03	8.91E-01	0.00E+00	0.00E+00	0.00E+00	0.00E+00
	2000000000	7.50E-02	-2.28E-02	-4.80E-02	8.10E-01	0.00E+00	0.00E+00	0.00E+00	0.00E+00
	2050000000	5.59E-02	-1.93E-01	-3.75E-02	5.61E-01	0.00E+00	0.00E+00	0.00E+00	0.00E+00
	2100000000	-4.00E-01	-3.67E-02	-2.78E-01	2.03E-01	0.00E+00	0.00E+00	0.00E+00	0.00E+00
	2150000000	-1.90E-01	4.71E-01	-4.97E-01	6.59E-02	0.00E+00	0.00E+00	0.00E+00	0.00E+00
	2200000000	2.67E-01	4.83E-01	-5.99E-01	-5.06E-02	0.00E+00	0.00E+00	0.00E+00	0.00E+00
	2250000000	5.15E-01	1.77E-01	-6.35E-01	-1.59E-01	0.00E+00	0.00E+00	0.00E+00	0.00E+00
	2300000000	4.62E-01	-1.66E-01	-6.08E-01	-2.69E-01	0.00E+00	0.00E+00	0.00E+00	0.00E+00
	2350000000	2.08E-01	-3.51E-01	-5.39E-01	-3.77E-01	0.00E+00	0.00E+00	0.00E+00	0.00E+00
	2400000000	-8.22E-02	-3.14E-01	-4.53E-01	-4.70E-01	0.00E+00	0.00E+00	0.00E+00	0.00E+00
	2450000000	-2.43E-01	-7.98E-02	-3.68E-01	-5.31E-01	0.00E+00	0.00E+00	0.00E+00	0.00E+00
	2500000000	-1.25E-01	1.34E-01	-3.01E-01	-5.01E-01	0.00E+00	0.00E+00	0.00E+00	0.00E+00
	2550000000	-1.60E-01	1.38E-01	-2.99E-02	-3.39E-01	0.00E+00	0.00E+00	0.00E+00	0.00E+00
	2600000000	4.61E-02	3.73E-01	2.18E-01	-4.00E-01	0.00E+00	0.00E+00	0.00E+00	0.00E+00
	2650000000	3.38E-01	2.61E-01	3.61E-01	-3.79E-01	0.00E+00	0.00E+00	0.00E+00	0.00E+00
	2700000000	4.06E-01	-1.82E-02	4.85E-01	-3.02E-01	0.00E+00	0.00E+00	0.00E+00	0.00E+00
	2750000000	2.54E-01	-2.18E-01	5.93E-01	-1.91E-01	0.00E+00	0.00E+00	0.00E+00	0.00E+00
	2800000000	3.82E-02	-2.22E-01	6.77E-01	-7.10E-02	0.00E+00	0.00E+00	0.00E+00	0.00E+00
	2850000000	-7.07E-02	-9.61E-02	7.27E-01	5.15E-02	0.00E+00	0.00E+00	0.00E+00	0.00E+00
	2900000000	-5.08E-02	3.53E-02	7.09E-01	1.76E-01	0.00E+00	0.00E+00	0.00E+00	0.00E+00
	2950000000	1.47E-02	8.28E-02	6.32E-01	3.48E-01	0.00E+00	0.00E+00	0.00E+00	0.00E+00
	3000000000	1.09E-01	1.28E-01	5.94E-01	5.02E-01	0.00E+00	0.00E+00	0.00E+00	0.00E+00
	3050000000	2.20E-01	6.33E-02	4.93E-01	6.20E-01	0.00E+00	0.00E+00	0.00E+00	0.00E+00
	3100000000	2.32E-01	-6.79E-02	3.65E-01	7.27E-01	0.00E+00	0.00E+00	0.00E+00	0.00E+00
	3150000000	1.38E-01	-1.46E-01	2.36E-01	8.12E-01	0.00E+00	0.00E+00	0.00E+00	0.00E+00
	3200000000	4.03E-02	-1.13E-01	9.83E-02	8.39E-01	0.00E+00	0.00E+00	0.00E+00	0.00E+00
	3250000000	2.30E-02	-3.27E-02	-6.75E-02	8.29E-01	0.00E+00	0.00E+00	0.00E+00	0.00E+00
	3300000000	5.88E-02	1.13E-02	-2.25E-01	7.95E-01	0.00E+00	0.00E+00	0.00E+00	0.00E+00
	3350000000	9.17E-02	1.70E-02	-3.72E-01	7.30E-01	0.00E+00	0.00E+00	0.00E+00	0.00E+00
	3400000000	9.62E-02	3.07E-02	-4.84E-01	6.49E-01	0.00E+00	0.00E+00	0.00E+00	0.00E+00
	3450000000	1.86E-01	9.62E-02	-5.09E-01	5.07E-01	0.00E+00	0.00E+00	0.00E+00	0.00E+00
	3500000000	2.81E-01	-6.65E-03	-5.73E-01	2.74E-01	0.00E+00	0.00E+00	0.00E+00	0.00E+00
	3550000000	2.68E-01	-1.55E-01	-6.46E-01	2.86E-02	0.00E+00	0.00E+00	0.00E+00	0.00E+00
	3600000000	1.45E-01	-1.98E-01	-7.18E-01	-1.41E-01	0.00E+00	0.00E+00	0.00E+00	0.00E+00
	3650000000	7.36E-02	-1.70E-01	-7.09E-01	-3.00E-01	0.00E+00	0.00E+00	0.00E+00	0.00E+00
	3700000000	2.18E-02	-1.32E-01	-6.53E-01	-4.74E-01	0.00E+00	0.00E+00	0.00E+00	0.00E+00
	3750000000	-1.33E-02	-5.97E-02	-5.84E-01	-6.23E-01	0.00E+00	0.00E+00	0.00E+00	0.00E+00
	3800000000	1.93E-02	2.42E-02	-4.76E-01	-7.23E-01	0.00E+00	0.00E+00	0.00E+00	0.00E+00
	3850000000	8.53E-02	3.97E-02	-3.10E-01	-7.99E-01	0.00E+00	0.00E+00	0.00E+00	0.00E+00
	3900000000	1.01E-01	3.44E-02	-1.34E-01	-8.60E-01	0.00E+00	0.00E+00	0.00E+00	0.00E+00
	3950000000	1.36E-01	8.44E-02	3.30E-02	-8.58E-01	0.00E+00	0.00E+00	0.00E+00	0.00E+00
	4000000000	2.72E-01	8.21E-02	2.40E-01	-8.09E-01	0.00E+00	0.00E+00	0.00E+00	0.00E+00
	4050000000	3.79E-01	-7.97E-02	4.44E-01	-7.58E-01	0.00E+00	0.00E+00	0.00E+00	0.00E+00
	4100000000	3.06E-01	-2.94E-01	5.89E-01	-6.83E-01	0.00E+00	0.00E+00	0.00E+00	0.00E+00
	4150000000	8.81E-02	-3.76E-01	7.19E-01	-5.35E-01	0.00E+00	0.00E+00	0.00E+00	0.00E+00
	4200000000	-9.08E-02	-2.73E-01	8.49E-01	-3.80E-01	0.00E+00	0.00E+00	0.00E+00	0.00E+00
	4250000000	-1.33E-01	-1.35E-01	9.12E-01	-2.39E-01	0.00E+00	0.00E+00	0.00E+00	0.00E+00
	4300000000	-1.50E-01	-3.37E-02	9.15E-01	-5.20E-02	0.00E+00	0.00E+00	0.00E+00	0.00E+00
	4350000000	-1.25E-01	1.37E-01	8.98E-01	1.34E-01	0.00E+00	0.00E+00	0.00E+00	0.00E+00
	4400000000	9.27E-02	2.81E-01	8.20E-01	2.95E-01	0.00E+00	0.00E+00	0.00E+00	0.00E+00
	4450000000	3.79E-01	1.73E-01	6.90E-01	4.71E-01	0.00E+00	0.00E+00	0.00E+00	0.00E+00
	4500000000	4.68E-01	-1.20E-01	5.55E-01	6.34E-01	0.00E+00	0.00E+00	0.00E+00	0.00E+00
	4550000000	3.12E-01	-3.44E-01	3.89E-01	7.39E-01	0.00E+00	0.00E+00	0.00E+00	0.00E+00
	4600000000	1.08E-01	-3.51E-01	1.82E-01	8.30E-01	0.00E+00	0.00E+00	0.00E+00	0.00E+00
	4650000000	3.50E-02	-3.04E-01	-1.34E-02	8.70E-01	0.00E+00	0.00E+00	0.00E+00	0.00E+00
	4700000000	-6.60E-02	-2.42E-01	-2.45E-01	8.85E-01	0.00E+00	0.00E+00	0.00E+00	0.00E+00
	4750000000	-1.09E-01	-1.67E-01	-4.27E-01	8.20E-01	0.00E+00	0.00E+00	0.00E+00	0.00E+00
	4800000000	-1.33E-01	6.43E-04	-6.85E-01	7.38E-01	0.00E+00	0.00E+00	0.00E+00	0.00E+00
	4850000000	5.51E-02	1.35E-01	-9.22E-01	7.13E-01	0.00E+00	0.00E+00	0.00E+00	0.00E+00
	4900000000	2.50E-01	6.42E-03	-1.03E+00	6.74E-01	0.00E+00	0.00E+00	0.00E+00	0.00E+00
	4950000000	1.95E-01	-1.89E-01	-1.04E+00	5.47E-01	0.00E+00	0.00E+00	0.00E+00	0.00E+00
	5000000000	1.94E-02	-1.65E-01	-1.06E+00	3.53E-01	0.00E+00	0.00E+00	0.00E+00	0.00E+00
	5050000000	5.00E-02	1.02E-02	-1.08E+00	6.93E-02	0.00E+00	0.00E+00	0.00E+00	0.00E+00
	5100000000	2.50E-01	-1.91E-02	-1.08E+00	-3.14E-02	0.00E+00	0.00E+00	0.00E+00	0.00E+00
	5150000000	2.72E-01	-2.42E-01	-9.91E-01	-1.99E-01	0.00E+00	0.00E+00	0.00E+00	0.00E+00
	5200000000	7.14E-02	-3.48E-01	-8.73E-01	-3.72E-01	0.00E+00	0.00E+00	0.00E+00	0.00E+00
	5250000000	-7.45E-02	-2.34E-01	-7.44E-01	-5.44E-01	0.00E+00	0.00E+00	0.00E+00	0.00E+00
	5300000000	-3.72E-02	-1.44E-01	-6.02E-01	-6.83E-01	0.00E+00	0.00E+00	0.00E+00	0.00E+00
	5350000000	-5.40E-02	-1.87E-01	-4.54E-01	-7.42E-01	0.00E+00	0.00E+00	0.00E+00	0.00E+00
	5400000000	-1.61E-01	-1.11E-01	-2.42E-01	-7.95E-01	0.00E+00	0.00E+00	0.00E+00	0.00E+00
	5450000000	-1.00E-01	7.18E-02	-6.42E-02	-8.44E-01	0.00E+00	0.00E+00	0.00E+00	0.00E+00
	5500000000	1.23E-01	6.56E-02	6.79E-02	-8.07E-01	0.00E+00	0.00E+00	0.00E+00	0.00E+00
	5550000000	1.83E-01	-1.28E-01	2.41E-01	-6.90E-01	0.00E+00	0.00E+00	0.00E+00	0.00E+00
	5600000000	4.41E-02	-2.00E-01	3.98E-01	-5.59E-01	0.00E+00	0.00E+00	0.00E+00	0.00E+00
	5650000000	4.01E-02	-1.36E-01	5.52E-01	-4.09E-01	0.00E+00	0.00E+00	0.00E+00	0.00E+00
	5700000000	8.89E-02	-1.45E-01	6.62E-01	-2.71E-01	0.00E+00	0.00E+00	0.00E+00	0.00E+00
	5750000000	1.24E-01	-2.29E-01	7.12E-01	-1.11E-01	0.00E+00	0.00E+00	0.00E+00	0.00E+00
	5800000000	5.69E-02	-3.24E-01	7.33E-01	5.36E-02	0.00E+00	0.00E+00	0.00E+00	0.00E+00
	5850000000	-6.13E-02	-3.20E-01	7.02E-01	2.22E-01	0.00E+00	0.00E+00	0.00E+00	0.00E+00
	5900000000	-8.35E-02	-2.23E-01	6.58E-01	3.90E-01	0.00E+00	0.00E+00	0.00E+00	0.00E+00
	5950000000	-1.10E-02	-2.33E-01	5.93E-01	5.01E-01	0.00E+00	0.00E+00	0.00E+00	0.00E+00
	6000000000	-1.23E-01	-2.73E-01	7.46E-01	4.15E-02	0.00E+00	0.00E+00	0.00E+00	0.00E+00
