! NanoVNA-App									
! Date: 2024-03-20 20:14:59									
! Start: 1GHz Stop: 6GHz Points: 101									
! S-Parameter data: F S11 S21 S12 S22									
# Hz S RI R 50									
!	Frequency	S11_Real	S11_Imag	S21_Real	S21_Imag	S12_Real	S12_Imag	S22_Real	S22_Imag
	1000000000	1.24E-01	-2.40E-02	-5.53E-01	-8.80E-01	0.00E+00	0.00E+00	0.00E+00	0.00E+00
	1050000000	5.38E-02	-2.37E-02	-3.71E-01	-9.67E-01	0.00E+00	0.00E+00	0.00E+00	0.00E+00
	1100000000	5.01E-02	-1.08E-02	-1.64E-01	-1.02E+00	0.00E+00	0.00E+00	0.00E+00	0.00E+00
	1150000000	3.18E-02	-4.54E-02	4.18E-02	-1.03E+00	0.00E+00	0.00E+00	0.00E+00	0.00E+00
	1200000000	-4.78E-02	-3.61E-02	2.48E-01	-9.88E-01	0.00E+00	0.00E+00	0.00E+00	0.00E+00
	1250000000	-7.61E-02	6.66E-02	4.52E-01	-9.08E-01	0.00E+00	0.00E+00	0.00E+00	0.00E+00
	1300000000	1.67E-02	1.36E-01	6.33E-01	-7.99E-01	0.00E+00	0.00E+00	0.00E+00	0.00E+00
	1350000000	1.03E-01	6.64E-02	7.74E-01	-6.49E-01	0.00E+00	0.00E+00	0.00E+00	0.00E+00
	1400000000	7.66E-02	4.86E-03	9.03E-01	-4.79E-01	0.00E+00	0.00E+00	0.00E+00	0.00E+00
	1450000000	1.96E-02	2.08E-02	9.75E-01	-2.95E-01	0.00E+00	0.00E+00	0.00E+00	0.00E+00
	1500000000	5.25E-02	6.34E-02	1.00E+00	-9.71E-02	0.00E+00	0.00E+00	0.00E+00	0.00E+00
	1550000000	9.48E-02	7.35E-03	9.90E-01	1.04E-01	0.00E+00	0.00E+00	0.00E+00	0.00E+00
	1600000000	1.29E-02	-5.38E-02	9.43E-01	2.96E-01	0.00E+00	0.00E+00	0.00E+00	0.00E+00
	1650000000	-9.17E-02	4.17E-02	8.56E-01	4.66E-01	0.00E+00	0.00E+00	0.00E+00	0.00E+00
	1700000000	-2.06E-02	2.00E-01	7.27E-01	6.06E-01	0.00E+00	0.00E+00	0.00E+00	0.00E+00
	1750000000	1.66E-01	1.98E-01	5.69E-01	7.38E-01	0.00E+00	0.00E+00	0.00E+00	0.00E+00
	1800000000	2.42E-01	3.84E-02	4.18E-01	8.45E-01	0.00E+00	0.00E+00	0.00E+00	0.00E+00
	1850000000	1.54E-01	-7.74E-02	2.65E-01	8.99E-01	0.00E+00	0.00E+00	0.00E+00	0.00E+00
	1900000000	6.01E-02	-5.85E-02	1.22E-01	9.11E-01	0.00E+00	0.00E+00	0.00E+00	0.00E+00
	1950000000	4.77E-02	-1.95E-02	2.58E-03	8.88E-01	0.00E+00	0.00E+00	0.00E+00	0.00E+00
	2000000000	7.08E-02	-1.71E-02	-5.32E-02	8.06E-01	0.00E+00	0.00E+00	0.00E+00	0.00E+00
	2050000000	5.68E-02	-1.82E-01	-4.03E-02	5.67E-01	0.00E+00	0.00E+00	0.00E+00	0.00E+00
	2100000000	-3.85E-01	-3.52E-02	-2.74E-01	2.01E-01	0.00E+00	0.00E+00	0.00E+00	0.00E+00
	2150000000	-1.86E-01	4.67E-01	-4.89E-01	6.14E-02	0.00E+00	0.00E+00	0.00E+00	0.00E+00
	2200000000	2.69E-01	4.79E-01	-5.89E-01	-5.65E-02	0.00E+00	0.00E+00	0.00E+00	0.00E+00
	2250000000	5.15E-01	1.72E-01	-6.24E-01	-1.66E-01	0.00E+00	0.00E+00	0.00E+00	0.00E+00
	2300000000	4.57E-01	-1.72E-01	-5.96E-01	-2.74E-01	0.00E+00	0.00E+00	0.00E+00	0.00E+00
	2350000000	2.00E-01	-3.50E-01	-5.24E-01	-3.83E-01	0.00E+00	0.00E+00	0.00E+00	0.00E+00
	2400000000	-8.97E-02	-3.03E-01	-4.38E-01	-4.73E-01	0.00E+00	0.00E+00	0.00E+00	0.00E+00
	2450000000	-2.38E-01	-6.60E-02	-3.49E-01	-5.33E-01	0.00E+00	0.00E+00	0.00E+00	0.00E+00
	2500000000	-1.13E-01	1.41E-01	-2.79E-01	-5.03E-01	0.00E+00	0.00E+00	0.00E+00	0.00E+00
	2550000000	-1.40E-01	1.24E-01	-2.09E-02	-3.32E-01	0.00E+00	0.00E+00	0.00E+00	0.00E+00
	2600000000	4.07E-02	3.60E-01	2.42E-01	-3.88E-01	0.00E+00	0.00E+00	0.00E+00	0.00E+00
	2650000000	3.30E-01	2.56E-01	3.85E-01	-3.74E-01	0.00E+00	0.00E+00	0.00E+00	0.00E+00
	2700000000	3.97E-01	-1.83E-02	5.07E-01	-2.98E-01	0.00E+00	0.00E+00	0.00E+00	0.00E+00
	2750000000	2.46E-01	-2.11E-01	6.12E-01	-1.85E-01	0.00E+00	0.00E+00	0.00E+00	0.00E+00
	2800000000	4.29E-02	-2.13E-01	6.98E-01	-5.79E-02	0.00E+00	0.00E+00	0.00E+00	0.00E+00
	2850000000	-5.86E-02	-8.82E-02	7.38E-01	6.12E-02	0.00E+00	0.00E+00	0.00E+00	0.00E+00
	2900000000	-3.84E-02	3.01E-02	7.18E-01	1.87E-01	0.00E+00	0.00E+00	0.00E+00	0.00E+00
	2950000000	1.77E-02	6.97E-02	6.40E-01	3.61E-01	0.00E+00	0.00E+00	0.00E+00	0.00E+00
	3000000000	1.01E-01	1.21E-01	5.93E-01	5.16E-01	0.00E+00	0.00E+00	0.00E+00	0.00E+00
	3050000000	2.11E-01	6.32E-02	4.94E-01	6.30E-01	0.00E+00	0.00E+00	0.00E+00	0.00E+00
	3100000000	2.27E-01	-6.29E-02	3.58E-01	7.39E-01	0.00E+00	0.00E+00	0.00E+00	0.00E+00
	3150000000	1.37E-01	-1.39E-01	2.26E-01	8.23E-01	0.00E+00	0.00E+00	0.00E+00	0.00E+00
	3200000000	4.31E-02	-1.06E-01	8.66E-02	8.49E-01	0.00E+00	0.00E+00	0.00E+00	0.00E+00
	3250000000	2.83E-02	-3.12E-02	-7.86E-02	8.36E-01	0.00E+00	0.00E+00	0.00E+00	0.00E+00
	3300000000	6.29E-02	8.02E-03	-2.37E-01	8.02E-01	0.00E+00	0.00E+00	0.00E+00	0.00E+00
	3350000000	9.13E-02	1.31E-02	-3.85E-01	7.35E-01	0.00E+00	0.00E+00	0.00E+00	0.00E+00
	3400000000	9.48E-02	2.90E-02	-4.97E-01	6.51E-01	0.00E+00	0.00E+00	0.00E+00	0.00E+00
	3450000000	1.84E-01	9.34E-02	-5.23E-01	5.04E-01	0.00E+00	0.00E+00	0.00E+00	0.00E+00
	3500000000	2.75E-01	-9.82E-03	-5.84E-01	2.73E-01	0.00E+00	0.00E+00	0.00E+00	0.00E+00
	3550000000	2.62E-01	-1.56E-01	-6.59E-01	2.17E-02	0.00E+00	0.00E+00	0.00E+00	0.00E+00
	3600000000	1.41E-01	-1.93E-01	-7.30E-01	-1.48E-01	0.00E+00	0.00E+00	0.00E+00	0.00E+00
	3650000000	7.66E-02	-1.63E-01	-7.19E-01	-3.08E-01	0.00E+00	0.00E+00	0.00E+00	0.00E+00
	3700000000	2.80E-02	-1.31E-01	-6.63E-01	-4.80E-01	0.00E+00	0.00E+00	0.00E+00	0.00E+00
	3750000000	-9.60E-03	-6.33E-02	-5.90E-01	-6.30E-01	0.00E+00	0.00E+00	0.00E+00	0.00E+00
	3800000000	1.93E-02	1.96E-02	-4.77E-01	-7.31E-01	0.00E+00	0.00E+00	0.00E+00	0.00E+00
	3850000000	8.30E-02	3.56E-02	-3.12E-01	-8.06E-01	0.00E+00	0.00E+00	0.00E+00	0.00E+00
	3900000000	9.62E-02	3.29E-02	-1.32E-01	-8.65E-01	0.00E+00	0.00E+00	0.00E+00	0.00E+00
	3950000000	1.32E-01	8.64E-02	3.52E-02	-8.63E-01	0.00E+00	0.00E+00	0.00E+00	0.00E+00
	4000000000	2.72E-01	8.56E-02	2.38E-01	-8.11E-01	0.00E+00	0.00E+00	0.00E+00	0.00E+00
	4050000000	3.83E-01	-7.77E-02	4.46E-01	-7.60E-01	0.00E+00	0.00E+00	0.00E+00	0.00E+00
	4100000000	3.10E-01	-2.95E-01	5.90E-01	-6.83E-01	0.00E+00	0.00E+00	0.00E+00	0.00E+00
	4150000000	9.01E-02	-3.78E-01	7.19E-01	-5.35E-01	0.00E+00	0.00E+00	0.00E+00	0.00E+00
	4200000000	-9.13E-02	-2.75E-01	8.51E-01	-3.74E-01	0.00E+00	0.00E+00	0.00E+00	0.00E+00
	4250000000	-1.36E-01	-1.35E-01	9.13E-01	-2.32E-01	0.00E+00	0.00E+00	0.00E+00	0.00E+00
	4300000000	-1.52E-01	-3.20E-02	9.14E-01	-4.19E-02	0.00E+00	0.00E+00	0.00E+00	0.00E+00
	4350000000	-1.24E-01	1.42E-01	8.97E-01	1.38E-01	0.00E+00	0.00E+00	0.00E+00	0.00E+00
	4400000000	9.45E-02	2.85E-01	8.18E-01	3.06E-01	0.00E+00	0.00E+00	0.00E+00	0.00E+00
	4450000000	3.83E-01	1.75E-01	6.87E-01	4.78E-01	0.00E+00	0.00E+00	0.00E+00	0.00E+00
	4500000000	4.71E-01	-1.18E-01	5.50E-01	6.43E-01	0.00E+00	0.00E+00	0.00E+00	0.00E+00
	4550000000	3.15E-01	-3.45E-01	3.82E-01	7.46E-01	0.00E+00	0.00E+00	0.00E+00	0.00E+00
	4600000000	1.07E-01	-3.53E-01	1.76E-01	8.35E-01	0.00E+00	0.00E+00	0.00E+00	0.00E+00
	4650000000	3.29E-02	-3.03E-01	-2.18E-02	8.75E-01	0.00E+00	0.00E+00	0.00E+00	0.00E+00
	4700000000	-7.09E-02	-2.40E-01	-2.55E-01	8.83E-01	0.00E+00	0.00E+00	0.00E+00	0.00E+00
	4750000000	-1.13E-01	-1.61E-01	-4.35E-01	8.21E-01	0.00E+00	0.00E+00	0.00E+00	0.00E+00
	4800000000	-1.35E-01	5.32E-03	-6.95E-01	7.37E-01	0.00E+00	0.00E+00	0.00E+00	0.00E+00
	4850000000	5.40E-02	1.40E-01	-9.36E-01	7.04E-01	0.00E+00	0.00E+00	0.00E+00	0.00E+00
	4900000000	2.51E-01	1.15E-02	-1.04E+00	6.68E-01	0.00E+00	0.00E+00	0.00E+00	0.00E+00
	4950000000	1.97E-01	-1.87E-01	-1.05E+00	5.39E-01	0.00E+00	0.00E+00	0.00E+00	0.00E+00
	5000000000	1.98E-02	-1.65E-01	-1.07E+00	3.47E-01	0.00E+00	0.00E+00	0.00E+00	0.00E+00
	5050000000	4.70E-02	8.22E-03	-1.09E+00	5.30E-02	0.00E+00	0.00E+00	0.00E+00	0.00E+00
	5100000000	2.45E-01	-1.84E-02	-1.09E+00	-4.72E-02	0.00E+00	0.00E+00	0.00E+00	0.00E+00
	5150000000	2.67E-01	-2.40E-01	-9.95E-01	-2.15E-01	0.00E+00	0.00E+00	0.00E+00	0.00E+00
	5200000000	6.67E-02	-3.45E-01	-8.74E-01	-3.84E-01	0.00E+00	0.00E+00	0.00E+00	0.00E+00
	5250000000	-8.02E-02	-2.29E-01	-7.39E-01	-5.56E-01	0.00E+00	0.00E+00	0.00E+00	0.00E+00
	5300000000	-4.06E-02	-1.40E-01	-5.97E-01	-6.96E-01	0.00E+00	0.00E+00	0.00E+00	0.00E+00
	5350000000	-5.53E-02	-1.83E-01	-4.45E-01	-7.55E-01	0.00E+00	0.00E+00	0.00E+00	0.00E+00
	5400000000	-1.62E-01	-1.11E-01	-2.32E-01	-8.04E-01	0.00E+00	0.00E+00	0.00E+00	0.00E+00
	5450000000	-1.05E-01	7.29E-02	-5.14E-02	-8.51E-01	0.00E+00	0.00E+00	0.00E+00	0.00E+00
	5500000000	1.19E-01	7.06E-02	7.96E-02	-8.12E-01	0.00E+00	0.00E+00	0.00E+00	0.00E+00
	5550000000	1.84E-01	-1.27E-01	2.52E-01	-6.93E-01	0.00E+00	0.00E+00	0.00E+00	0.00E+00
	5600000000	4.17E-02	-2.05E-01	4.10E-01	-5.57E-01	0.00E+00	0.00E+00	0.00E+00	0.00E+00
	5650000000	2.88E-02	-1.32E-01	5.59E-01	-4.06E-01	0.00E+00	0.00E+00	0.00E+00	0.00E+00
	5700000000	8.52E-02	-1.39E-01	6.69E-01	-2.62E-01	0.00E+00	0.00E+00	0.00E+00	0.00E+00
	5750000000	1.20E-01	-2.26E-01	7.18E-01	-1.01E-01	0.00E+00	0.00E+00	0.00E+00	0.00E+00
	5800000000	5.41E-02	-3.21E-01	7.37E-01	6.58E-02	0.00E+00	0.00E+00	0.00E+00	0.00E+00
	5850000000	-6.75E-02	-3.18E-01	7.03E-01	2.31E-01	0.00E+00	0.00E+00	0.00E+00	0.00E+00
	5900000000	-9.02E-02	-2.24E-01	6.57E-01	4.01E-01	0.00E+00	0.00E+00	0.00E+00	0.00E+00
	5950000000	-2.32E-02	-2.31E-01	5.90E-01	5.13E-01	0.00E+00	0.00E+00	0.00E+00	0.00E+00
	6000000000	-1.30E-01	-2.69E-01	7.52E-01	5.70E-02	0.00E+00	0.00E+00	0.00E+00	0.00E+00
