! NanoVNA-App									
! Date: 2024-03-20 21:47:55									
! Start: 1GHz Stop: 6GHz Points: 101									
! S-Parameter data: F S11 S21 S12 S22									
# Hz S RI R 50									
!	Frequency	S11_Real	S11_Imag	S21_Real	S21_Imag	S12_Real	S12_Imag	S22_Real	S22_Imag
	1000000000	1.23E-01	-2.38E-02	-5.55E-01	-8.78E-01	0.00E+00	0.00E+00	0.00E+00	0.00E+00
	1050000000	5.29E-02	-2.31E-02	-3.74E-01	-9.65E-01	0.00E+00	0.00E+00	0.00E+00	0.00E+00
	1100000000	5.01E-02	-1.09E-02	-1.67E-01	-1.02E+00	0.00E+00	0.00E+00	0.00E+00	0.00E+00
	1150000000	3.10E-02	-4.60E-02	3.83E-02	-1.03E+00	0.00E+00	0.00E+00	0.00E+00	0.00E+00
	1200000000	-4.91E-02	-3.64E-02	2.43E-01	-9.90E-01	0.00E+00	0.00E+00	0.00E+00	0.00E+00
	1250000000	-7.71E-02	6.66E-02	4.49E-01	-9.09E-01	0.00E+00	0.00E+00	0.00E+00	0.00E+00
	1300000000	1.60E-02	1.36E-01	6.31E-01	-8.01E-01	0.00E+00	0.00E+00	0.00E+00	0.00E+00
	1350000000	1.03E-01	6.55E-02	7.71E-01	-6.54E-01	0.00E+00	0.00E+00	0.00E+00	0.00E+00
	1400000000	7.46E-02	4.78E-03	9.03E-01	-4.82E-01	0.00E+00	0.00E+00	0.00E+00	0.00E+00
	1450000000	1.84E-02	2.17E-02	9.74E-01	-3.00E-01	0.00E+00	0.00E+00	0.00E+00	0.00E+00
	1500000000	5.26E-02	6.43E-02	1.00E+00	-1.00E-01	0.00E+00	0.00E+00	0.00E+00	0.00E+00
	1550000000	9.57E-02	6.93E-03	9.91E-01	1.01E-01	0.00E+00	0.00E+00	0.00E+00	0.00E+00
	1600000000	1.34E-02	-5.56E-02	9.44E-01	2.95E-01	0.00E+00	0.00E+00	0.00E+00	0.00E+00
	1650000000	-9.25E-02	3.94E-02	8.60E-01	4.62E-01	0.00E+00	0.00E+00	0.00E+00	0.00E+00
	1700000000	-2.30E-02	1.98E-01	7.29E-01	6.05E-01	0.00E+00	0.00E+00	0.00E+00	0.00E+00
	1750000000	1.64E-01	1.97E-01	5.74E-01	7.36E-01	0.00E+00	0.00E+00	0.00E+00	0.00E+00
	1800000000	2.40E-01	3.97E-02	4.22E-01	8.44E-01	0.00E+00	0.00E+00	0.00E+00	0.00E+00
	1850000000	1.53E-01	-7.54E-02	2.67E-01	8.99E-01	0.00E+00	0.00E+00	0.00E+00	0.00E+00
	1900000000	6.14E-02	-5.69E-02	1.22E-01	9.13E-01	0.00E+00	0.00E+00	0.00E+00	0.00E+00
	1950000000	5.00E-02	-1.93E-02	7.51E-03	8.90E-01	0.00E+00	0.00E+00	0.00E+00	0.00E+00
	2000000000	7.43E-02	-1.81E-02	-4.88E-02	8.07E-01	0.00E+00	0.00E+00	0.00E+00	0.00E+00
	2050000000	5.95E-02	-1.90E-01	-3.52E-02	5.62E-01	0.00E+00	0.00E+00	0.00E+00	0.00E+00
	2100000000	-3.92E-01	-3.74E-02	-2.79E-01	1.98E-01	0.00E+00	0.00E+00	0.00E+00	0.00E+00
	2150000000	-1.89E-01	4.69E-01	-4.96E-01	6.38E-02	0.00E+00	0.00E+00	0.00E+00	0.00E+00
	2200000000	2.66E-01	4.81E-01	-5.96E-01	-5.32E-02	0.00E+00	0.00E+00	0.00E+00	0.00E+00
	2250000000	5.14E-01	1.77E-01	-6.33E-01	-1.64E-01	0.00E+00	0.00E+00	0.00E+00	0.00E+00
	2300000000	4.60E-01	-1.67E-01	-6.05E-01	-2.71E-01	0.00E+00	0.00E+00	0.00E+00	0.00E+00
	2350000000	2.07E-01	-3.48E-01	-5.34E-01	-3.81E-01	0.00E+00	0.00E+00	0.00E+00	0.00E+00
	2400000000	-8.21E-02	-3.10E-01	-4.51E-01	-4.73E-01	0.00E+00	0.00E+00	0.00E+00	0.00E+00
	2450000000	-2.38E-01	-7.64E-02	-3.60E-01	-5.33E-01	0.00E+00	0.00E+00	0.00E+00	0.00E+00
	2500000000	-1.21E-01	1.33E-01	-2.93E-01	-5.01E-01	0.00E+00	0.00E+00	0.00E+00	0.00E+00
	2550000000	-1.54E-01	1.35E-01	-2.58E-02	-3.44E-01	0.00E+00	0.00E+00	0.00E+00	0.00E+00
	2600000000	4.40E-02	3.67E-01	2.22E-01	-4.00E-01	0.00E+00	0.00E+00	0.00E+00	0.00E+00
	2650000000	3.32E-01	2.60E-01	3.65E-01	-3.77E-01	0.00E+00	0.00E+00	0.00E+00	0.00E+00
	2700000000	4.04E-01	-1.15E-02	4.94E-01	-2.96E-01	0.00E+00	0.00E+00	0.00E+00	0.00E+00
	2750000000	2.53E-01	-2.13E-01	5.99E-01	-1.90E-01	0.00E+00	0.00E+00	0.00E+00	0.00E+00
	2800000000	4.17E-02	-2.16E-01	6.83E-01	-6.93E-02	0.00E+00	0.00E+00	0.00E+00	0.00E+00
	2850000000	-6.41E-02	-9.54E-02	7.31E-01	5.36E-02	0.00E+00	0.00E+00	0.00E+00	0.00E+00
	2900000000	-4.66E-02	3.02E-02	7.14E-01	1.78E-01	0.00E+00	0.00E+00	0.00E+00	0.00E+00
	2950000000	1.47E-02	7.57E-02	6.41E-01	3.55E-01	0.00E+00	0.00E+00	0.00E+00	0.00E+00
	3000000000	1.03E-01	1.26E-01	5.96E-01	5.08E-01	0.00E+00	0.00E+00	0.00E+00	0.00E+00
	3050000000	2.16E-01	6.52E-02	4.97E-01	6.20E-01	0.00E+00	0.00E+00	0.00E+00	0.00E+00
	3100000000	2.31E-01	-6.33E-02	3.62E-01	7.30E-01	0.00E+00	0.00E+00	0.00E+00	0.00E+00
	3150000000	1.40E-01	-1.42E-01	2.33E-01	8.15E-01	0.00E+00	0.00E+00	0.00E+00	0.00E+00
	3200000000	4.35E-02	-1.11E-01	9.71E-02	8.41E-01	0.00E+00	0.00E+00	0.00E+00	0.00E+00
	3250000000	2.60E-02	-3.46E-02	-6.86E-02	8.32E-01	0.00E+00	0.00E+00	0.00E+00	0.00E+00
	3300000000	6.00E-02	7.92E-03	-2.29E-01	7.97E-01	0.00E+00	0.00E+00	0.00E+00	0.00E+00
	3350000000	9.04E-02	1.48E-02	-3.74E-01	7.32E-01	0.00E+00	0.00E+00	0.00E+00	0.00E+00
	3400000000	9.41E-02	3.00E-02	-4.88E-01	6.51E-01	0.00E+00	0.00E+00	0.00E+00	0.00E+00
	3450000000	1.84E-01	9.52E-02	-5.13E-01	5.06E-01	0.00E+00	0.00E+00	0.00E+00	0.00E+00
	3500000000	2.75E-01	-6.34E-03	-5.76E-01	2.81E-01	0.00E+00	0.00E+00	0.00E+00	0.00E+00
	3550000000	2.69E-01	-1.51E-01	-6.49E-01	3.28E-02	0.00E+00	0.00E+00	0.00E+00	0.00E+00
	3600000000	1.49E-01	-1.97E-01	-7.20E-01	-1.38E-01	0.00E+00	0.00E+00	0.00E+00	0.00E+00
	3650000000	7.58E-02	-1.72E-01	-7.09E-01	-2.98E-01	0.00E+00	0.00E+00	0.00E+00	0.00E+00
	3700000000	2.15E-02	-1.35E-01	-6.56E-01	-4.70E-01	0.00E+00	0.00E+00	0.00E+00	0.00E+00
	3750000000	-1.55E-02	-6.03E-02	-5.84E-01	-6.22E-01	0.00E+00	0.00E+00	0.00E+00	0.00E+00
	3800000000	1.79E-02	2.58E-02	-4.74E-01	-7.23E-01	0.00E+00	0.00E+00	0.00E+00	0.00E+00
	3850000000	8.52E-02	4.07E-02	-3.10E-01	-7.97E-01	0.00E+00	0.00E+00	0.00E+00	0.00E+00
	3900000000	1.01E-01	3.56E-02	-1.33E-01	-8.57E-01	0.00E+00	0.00E+00	0.00E+00	0.00E+00
	3950000000	1.37E-01	8.38E-02	3.35E-02	-8.56E-01	0.00E+00	0.00E+00	0.00E+00	0.00E+00
	4000000000	2.73E-01	8.13E-02	2.41E-01	-8.07E-01	0.00E+00	0.00E+00	0.00E+00	0.00E+00
	4050000000	3.79E-01	-8.00E-02	4.44E-01	-7.57E-01	0.00E+00	0.00E+00	0.00E+00	0.00E+00
	4100000000	3.07E-01	-2.93E-01	5.89E-01	-6.81E-01	0.00E+00	0.00E+00	0.00E+00	0.00E+00
	4150000000	8.83E-02	-3.75E-01	7.16E-01	-5.35E-01	0.00E+00	0.00E+00	0.00E+00	0.00E+00
	4200000000	-9.05E-02	-2.73E-01	8.48E-01	-3.78E-01	0.00E+00	0.00E+00	0.00E+00	0.00E+00
	4250000000	-1.34E-01	-1.36E-01	9.10E-01	-2.35E-01	0.00E+00	0.00E+00	0.00E+00	0.00E+00
	4300000000	-1.51E-01	-3.27E-02	9.12E-01	-4.70E-02	0.00E+00	0.00E+00	0.00E+00	0.00E+00
	4350000000	-1.22E-01	1.41E-01	8.95E-01	1.34E-01	0.00E+00	0.00E+00	0.00E+00	0.00E+00
	4400000000	9.47E-02	2.82E-01	8.18E-01	2.99E-01	0.00E+00	0.00E+00	0.00E+00	0.00E+00
	4450000000	3.81E-01	1.74E-01	6.88E-01	4.75E-01	0.00E+00	0.00E+00	0.00E+00	0.00E+00
	4500000000	4.69E-01	-1.19E-01	5.51E-01	6.36E-01	0.00E+00	0.00E+00	0.00E+00	0.00E+00
	4550000000	3.14E-01	-3.45E-01	3.85E-01	7.41E-01	0.00E+00	0.00E+00	0.00E+00	0.00E+00
	4600000000	1.07E-01	-3.53E-01	1.80E-01	8.32E-01	0.00E+00	0.00E+00	0.00E+00	0.00E+00
	4650000000	3.27E-02	-3.03E-01	-1.56E-02	8.72E-01	0.00E+00	0.00E+00	0.00E+00	0.00E+00
	4700000000	-6.89E-02	-2.40E-01	-2.46E-01	8.84E-01	0.00E+00	0.00E+00	0.00E+00	0.00E+00
	4750000000	-1.10E-01	-1.65E-01	-4.32E-01	8.16E-01	0.00E+00	0.00E+00	0.00E+00	0.00E+00
	4800000000	-1.33E-01	4.28E-03	-6.88E-01	7.34E-01	0.00E+00	0.00E+00	0.00E+00	0.00E+00
	4850000000	5.58E-02	1.37E-01	-9.29E-01	7.07E-01	0.00E+00	0.00E+00	0.00E+00	0.00E+00
	4900000000	2.51E-01	8.08E-03	-1.03E+00	6.74E-01	0.00E+00	0.00E+00	0.00E+00	0.00E+00
	4950000000	1.96E-01	-1.88E-01	-1.05E+00	5.39E-01	0.00E+00	0.00E+00	0.00E+00	0.00E+00
	5000000000	1.95E-02	-1.65E-01	-1.06E+00	3.50E-01	0.00E+00	0.00E+00	0.00E+00	0.00E+00
	5050000000	4.87E-02	9.15E-03	-1.08E+00	6.29E-02	0.00E+00	0.00E+00	0.00E+00	0.00E+00
	5100000000	2.49E-01	-1.95E-02	-1.08E+00	-3.88E-02	0.00E+00	0.00E+00	0.00E+00	0.00E+00
	5150000000	2.69E-01	-2.41E-01	-9.92E-01	-2.03E-01	0.00E+00	0.00E+00	0.00E+00	0.00E+00
	5200000000	6.83E-02	-3.44E-01	-8.73E-01	-3.74E-01	0.00E+00	0.00E+00	0.00E+00	0.00E+00
	5250000000	-7.78E-02	-2.31E-01	-7.41E-01	-5.49E-01	0.00E+00	0.00E+00	0.00E+00	0.00E+00
	5300000000	-3.79E-02	-1.43E-01	-5.99E-01	-6.87E-01	0.00E+00	0.00E+00	0.00E+00	0.00E+00
	5350000000	-5.63E-02	-1.85E-01	-4.52E-01	-7.45E-01	0.00E+00	0.00E+00	0.00E+00	0.00E+00
	5400000000	-1.61E-01	-1.09E-01	-2.41E-01	-7.97E-01	0.00E+00	0.00E+00	0.00E+00	0.00E+00
	5450000000	-1.01E-01	7.18E-02	-5.43E-02	-8.45E-01	0.00E+00	0.00E+00	0.00E+00	0.00E+00
	5500000000	1.21E-01	6.68E-02	7.39E-02	-8.08E-01	0.00E+00	0.00E+00	0.00E+00	0.00E+00
	5550000000	1.83E-01	-1.27E-01	2.48E-01	-6.90E-01	0.00E+00	0.00E+00	0.00E+00	0.00E+00
	5600000000	4.35E-02	-2.01E-01	4.03E-01	-5.59E-01	0.00E+00	0.00E+00	0.00E+00	0.00E+00
	5650000000	3.61E-02	-1.34E-01	5.55E-01	-4.07E-01	0.00E+00	0.00E+00	0.00E+00	0.00E+00
	5700000000	8.51E-02	-1.43E-01	6.64E-01	-2.71E-01	0.00E+00	0.00E+00	0.00E+00	0.00E+00
	5750000000	1.24E-01	-2.28E-01	7.15E-01	-1.05E-01	0.00E+00	0.00E+00	0.00E+00	0.00E+00
	5800000000	5.63E-02	-3.23E-01	7.34E-01	6.26E-02	0.00E+00	0.00E+00	0.00E+00	0.00E+00
	5850000000	-6.59E-02	-3.19E-01	7.03E-01	2.25E-01	0.00E+00	0.00E+00	0.00E+00	0.00E+00
	5900000000	-8.72E-02	-2.23E-01	6.59E-01	3.94E-01	0.00E+00	0.00E+00	0.00E+00	0.00E+00
	5950000000	-1.70E-02	-2.31E-01	5.93E-01	5.03E-01	0.00E+00	0.00E+00	0.00E+00	0.00E+00
	6000000000	-1.26E-01	-2.72E-01	7.48E-01	4.48E-02	0.00E+00	0.00E+00	0.00E+00	0.00E+00
