! NanoVNA-App									
! Date: 2024-03-20 22:28:21									
! Start: 1GHz Stop: 6GHz Points: 101									
! S-Parameter data: F S11 S21 S12 S22									
# Hz S RI R 50									
!	Frequency	S11_Real	S11_Imag	S21_Real	S21_Imag	S12_Real	S12_Imag	S22_Real	S22_Imag
	1000000000	1.22E-01	-2.36E-02	-5.55E-01	-8.78E-01	0.00E+00	0.00E+00	0.00E+00	0.00E+00
	1050000000	5.26E-02	-2.29E-02	-3.74E-01	-9.66E-01	0.00E+00	0.00E+00	0.00E+00	0.00E+00
	1100000000	4.98E-02	-1.08E-02	-1.67E-01	-1.02E+00	0.00E+00	0.00E+00	0.00E+00	0.00E+00
	1150000000	3.08E-02	-4.62E-02	3.73E-02	-1.03E+00	0.00E+00	0.00E+00	0.00E+00	0.00E+00
	1200000000	-4.94E-02	-3.65E-02	2.44E-01	-9.89E-01	0.00E+00	0.00E+00	0.00E+00	0.00E+00
	1250000000	-7.74E-02	6.64E-02	4.50E-01	-9.09E-01	0.00E+00	0.00E+00	0.00E+00	0.00E+00
	1300000000	1.56E-02	1.35E-01	6.30E-01	-8.02E-01	0.00E+00	0.00E+00	0.00E+00	0.00E+00
	1350000000	1.01E-01	6.59E-02	7.72E-01	-6.54E-01	0.00E+00	0.00E+00	0.00E+00	0.00E+00
	1400000000	7.42E-02	4.93E-03	9.03E-01	-4.82E-01	0.00E+00	0.00E+00	0.00E+00	0.00E+00
	1450000000	1.80E-02	2.19E-02	9.75E-01	-3.00E-01	0.00E+00	0.00E+00	0.00E+00	0.00E+00
	1500000000	5.26E-02	6.41E-02	1.00E+00	-1.02E-01	0.00E+00	0.00E+00	0.00E+00	0.00E+00
	1550000000	9.58E-02	6.92E-03	9.91E-01	1.02E-01	0.00E+00	0.00E+00	0.00E+00	0.00E+00
	1600000000	1.37E-02	-5.60E-02	9.46E-01	2.95E-01	0.00E+00	0.00E+00	0.00E+00	0.00E+00
	1650000000	-9.22E-02	3.85E-02	8.58E-01	4.61E-01	0.00E+00	0.00E+00	0.00E+00	0.00E+00
	1700000000	-2.34E-02	1.97E-01	7.30E-01	6.06E-01	0.00E+00	0.00E+00	0.00E+00	0.00E+00
	1750000000	1.62E-01	1.97E-01	5.74E-01	7.37E-01	0.00E+00	0.00E+00	0.00E+00	0.00E+00
	1800000000	2.38E-01	4.09E-02	4.21E-01	8.46E-01	0.00E+00	0.00E+00	0.00E+00	0.00E+00
	1850000000	1.53E-01	-7.39E-02	2.69E-01	9.01E-01	0.00E+00	0.00E+00	0.00E+00	0.00E+00
	1900000000	6.28E-02	-5.60E-02	1.25E-01	9.13E-01	0.00E+00	0.00E+00	0.00E+00	0.00E+00
	1950000000	5.15E-02	-1.99E-02	6.26E-03	8.91E-01	0.00E+00	0.00E+00	0.00E+00	0.00E+00
	2000000000	7.48E-02	-1.95E-02	-4.92E-02	8.09E-01	0.00E+00	0.00E+00	0.00E+00	0.00E+00
	2050000000	5.95E-02	-1.91E-01	-3.63E-02	5.64E-01	0.00E+00	0.00E+00	0.00E+00	0.00E+00
	2100000000	-3.97E-01	-4.06E-02	-2.77E-01	2.02E-01	0.00E+00	0.00E+00	0.00E+00	0.00E+00
	2150000000	-1.91E-01	4.68E-01	-4.97E-01	6.41E-02	0.00E+00	0.00E+00	0.00E+00	0.00E+00
	2200000000	2.65E-01	4.82E-01	-5.98E-01	-5.27E-02	0.00E+00	0.00E+00	0.00E+00	0.00E+00
	2250000000	5.12E-01	1.78E-01	-6.35E-01	-1.64E-01	0.00E+00	0.00E+00	0.00E+00	0.00E+00
	2300000000	4.61E-01	-1.64E-01	-6.08E-01	-2.71E-01	0.00E+00	0.00E+00	0.00E+00	0.00E+00
	2350000000	2.09E-01	-3.50E-01	-5.40E-01	-3.80E-01	0.00E+00	0.00E+00	0.00E+00	0.00E+00
	2400000000	-7.95E-02	-3.10E-01	-4.52E-01	-4.73E-01	0.00E+00	0.00E+00	0.00E+00	0.00E+00
	2450000000	-2.38E-01	-8.08E-02	-3.63E-01	-5.35E-01	0.00E+00	0.00E+00	0.00E+00	0.00E+00
	2500000000	-1.25E-01	1.30E-01	-2.96E-01	-5.05E-01	0.00E+00	0.00E+00	0.00E+00	0.00E+00
	2550000000	-1.58E-01	1.34E-01	-3.03E-02	-3.45E-01	0.00E+00	0.00E+00	0.00E+00	0.00E+00
	2600000000	4.12E-02	3.70E-01	2.17E-01	-4.03E-01	0.00E+00	0.00E+00	0.00E+00	0.00E+00
	2650000000	3.33E-01	2.63E-01	3.63E-01	-3.81E-01	0.00E+00	0.00E+00	0.00E+00	0.00E+00
	2700000000	4.05E-01	-1.16E-02	4.87E-01	-3.01E-01	0.00E+00	0.00E+00	0.00E+00	0.00E+00
	2750000000	2.56E-01	-2.15E-01	5.97E-01	-1.94E-01	0.00E+00	0.00E+00	0.00E+00	0.00E+00
	2800000000	4.40E-02	-2.20E-01	6.81E-01	-7.17E-02	0.00E+00	0.00E+00	0.00E+00	0.00E+00
	2850000000	-6.63E-02	-9.91E-02	7.30E-01	4.88E-02	0.00E+00	0.00E+00	0.00E+00	0.00E+00
	2900000000	-4.98E-02	2.95E-02	7.13E-01	1.75E-01	0.00E+00	0.00E+00	0.00E+00	0.00E+00
	2950000000	1.09E-02	7.80E-02	6.39E-01	3.47E-01	0.00E+00	0.00E+00	0.00E+00	0.00E+00
	3000000000	1.03E-01	1.29E-01	5.97E-01	5.03E-01	0.00E+00	0.00E+00	0.00E+00	0.00E+00
	3050000000	2.17E-01	6.64E-02	4.99E-01	6.16E-01	0.00E+00	0.00E+00	0.00E+00	0.00E+00
	3100000000	2.33E-01	-6.33E-02	3.66E-01	7.26E-01	0.00E+00	0.00E+00	0.00E+00	0.00E+00
	3150000000	1.41E-01	-1.43E-01	2.37E-01	8.12E-01	0.00E+00	0.00E+00	0.00E+00	0.00E+00
	3200000000	4.47E-02	-1.13E-01	9.99E-02	8.38E-01	0.00E+00	0.00E+00	0.00E+00	0.00E+00
	3250000000	2.51E-02	-3.69E-02	-6.48E-02	8.28E-01	0.00E+00	0.00E+00	0.00E+00	0.00E+00
	3300000000	5.78E-02	7.24E-03	-2.24E-01	7.95E-01	0.00E+00	0.00E+00	0.00E+00	0.00E+00
	3350000000	8.85E-02	1.54E-02	-3.71E-01	7.31E-01	0.00E+00	0.00E+00	0.00E+00	0.00E+00
	3400000000	9.40E-02	3.14E-02	-4.84E-01	6.51E-01	0.00E+00	0.00E+00	0.00E+00	0.00E+00
	3450000000	1.84E-01	9.48E-02	-5.09E-01	5.12E-01	0.00E+00	0.00E+00	0.00E+00	0.00E+00
	3500000000	2.75E-01	-3.59E-03	-5.74E-01	2.82E-01	0.00E+00	0.00E+00	0.00E+00	0.00E+00
	3550000000	2.72E-01	-1.50E-01	-6.44E-01	3.61E-02	0.00E+00	0.00E+00	0.00E+00	0.00E+00
	3600000000	1.52E-01	-2.00E-01	-7.14E-01	-1.37E-01	0.00E+00	0.00E+00	0.00E+00	0.00E+00
	3650000000	7.51E-02	-1.75E-01	-7.04E-01	-2.94E-01	0.00E+00	0.00E+00	0.00E+00	0.00E+00
	3700000000	1.88E-02	-1.36E-01	-6.49E-01	-4.70E-01	0.00E+00	0.00E+00	0.00E+00	0.00E+00
	3750000000	-1.76E-02	-5.92E-02	-5.81E-01	-6.18E-01	0.00E+00	0.00E+00	0.00E+00	0.00E+00
	3800000000	1.75E-02	2.71E-02	-4.73E-01	-7.20E-01	0.00E+00	0.00E+00	0.00E+00	0.00E+00
	3850000000	8.64E-02	4.20E-02	-3.08E-01	-7.95E-01	0.00E+00	0.00E+00	0.00E+00	0.00E+00
	3900000000	1.03E-01	3.50E-02	-1.31E-01	-8.56E-01	0.00E+00	0.00E+00	0.00E+00	0.00E+00
	3950000000	1.37E-01	8.25E-02	3.91E-02	-8.55E-01	0.00E+00	0.00E+00	0.00E+00	0.00E+00
	4000000000	2.71E-01	8.02E-02	2.41E-01	-8.06E-01	0.00E+00	0.00E+00	0.00E+00	0.00E+00
	4050000000	3.78E-01	-7.97E-02	4.45E-01	-7.57E-01	0.00E+00	0.00E+00	0.00E+00	0.00E+00
	4100000000	3.06E-01	-2.93E-01	5.88E-01	-6.81E-01	0.00E+00	0.00E+00	0.00E+00	0.00E+00
	4150000000	8.88E-02	-3.75E-01	7.17E-01	-5.33E-01	0.00E+00	0.00E+00	0.00E+00	0.00E+00
	4200000000	-9.08E-02	-2.73E-01	8.48E-01	-3.79E-01	0.00E+00	0.00E+00	0.00E+00	0.00E+00
	4250000000	-1.34E-01	-1.36E-01	9.11E-01	-2.36E-01	0.00E+00	0.00E+00	0.00E+00	0.00E+00
	4300000000	-1.51E-01	-3.25E-02	9.13E-01	-5.15E-02	0.00E+00	0.00E+00	0.00E+00	0.00E+00
	4350000000	-1.25E-01	1.39E-01	8.96E-01	1.35E-01	0.00E+00	0.00E+00	0.00E+00	0.00E+00
	4400000000	9.45E-02	2.82E-01	8.18E-01	2.98E-01	0.00E+00	0.00E+00	0.00E+00	0.00E+00
	4450000000	3.81E-01	1.74E-01	6.90E-01	4.73E-01	0.00E+00	0.00E+00	0.00E+00	0.00E+00
	4500000000	4.69E-01	-1.19E-01	5.51E-01	6.38E-01	0.00E+00	0.00E+00	0.00E+00	0.00E+00
	4550000000	3.13E-01	-3.45E-01	3.87E-01	7.40E-01	0.00E+00	0.00E+00	0.00E+00	0.00E+00
	4600000000	1.07E-01	-3.52E-01	1.81E-01	8.31E-01	0.00E+00	0.00E+00	0.00E+00	0.00E+00
	4650000000	3.58E-02	-3.04E-01	-1.74E-02	8.71E-01	0.00E+00	0.00E+00	0.00E+00	0.00E+00
	4700000000	-6.85E-02	-2.41E-01	-2.46E-01	8.82E-01	0.00E+00	0.00E+00	0.00E+00	0.00E+00
	4750000000	-1.11E-01	-1.65E-01	-4.25E-01	8.20E-01	0.00E+00	0.00E+00	0.00E+00	0.00E+00
	4800000000	-1.34E-01	1.90E-03	-6.88E-01	7.35E-01	0.00E+00	0.00E+00	0.00E+00	0.00E+00
	4850000000	5.50E-02	1.36E-01	-9.25E-01	7.10E-01	0.00E+00	0.00E+00	0.00E+00	0.00E+00
	4900000000	2.50E-01	7.94E-03	-1.03E+00	6.75E-01	0.00E+00	0.00E+00	0.00E+00	0.00E+00
	4950000000	1.96E-01	-1.87E-01	-1.04E+00	5.41E-01	0.00E+00	0.00E+00	0.00E+00	0.00E+00
	5000000000	2.03E-02	-1.63E-01	-1.06E+00	3.52E-01	0.00E+00	0.00E+00	0.00E+00	0.00E+00
	5050000000	5.07E-02	9.19E-03	-1.08E+00	6.73E-02	0.00E+00	0.00E+00	0.00E+00	0.00E+00
	5100000000	2.49E-01	-2.07E-02	-1.08E+00	-3.26E-02	0.00E+00	0.00E+00	0.00E+00	0.00E+00
	5150000000	2.70E-01	-2.42E-01	-9.89E-01	-2.05E-01	0.00E+00	0.00E+00	0.00E+00	0.00E+00
	5200000000	6.74E-02	-3.46E-01	-8.71E-01	-3.73E-01	0.00E+00	0.00E+00	0.00E+00	0.00E+00
	5250000000	-7.77E-02	-2.32E-01	-7.42E-01	-5.47E-01	0.00E+00	0.00E+00	0.00E+00	0.00E+00
	5300000000	-3.70E-02	-1.43E-01	-5.97E-01	-6.87E-01	0.00E+00	0.00E+00	0.00E+00	0.00E+00
	5350000000	-5.30E-02	-1.84E-01	-4.52E-01	-7.44E-01	0.00E+00	0.00E+00	0.00E+00	0.00E+00
	5400000000	-1.56E-01	-1.13E-01	-2.35E-01	-7.98E-01	0.00E+00	0.00E+00	0.00E+00	0.00E+00
	5450000000	-1.01E-01	7.01E-02	-5.96E-02	-8.45E-01	0.00E+00	0.00E+00	0.00E+00	0.00E+00
	5500000000	1.21E-01	6.57E-02	7.46E-02	-8.08E-01	0.00E+00	0.00E+00	0.00E+00	0.00E+00
	5550000000	1.82E-01	-1.28E-01	2.43E-01	-6.92E-01	0.00E+00	0.00E+00	0.00E+00	0.00E+00
	5600000000	4.37E-02	-2.01E-01	4.02E-01	-5.59E-01	0.00E+00	0.00E+00	0.00E+00	0.00E+00
	5650000000	3.54E-02	-1.34E-01	5.54E-01	-4.09E-01	0.00E+00	0.00E+00	0.00E+00	0.00E+00
	5700000000	8.43E-02	-1.42E-01	6.63E-01	-2.73E-01	0.00E+00	0.00E+00	0.00E+00	0.00E+00
	5750000000	1.26E-01	-2.27E-01	7.15E-01	-1.08E-01	0.00E+00	0.00E+00	0.00E+00	0.00E+00
	5800000000	5.83E-02	-3.23E-01	7.35E-01	5.70E-02	0.00E+00	0.00E+00	0.00E+00	0.00E+00
	5850000000	-6.36E-02	-3.20E-01	7.02E-01	2.24E-01	0.00E+00	0.00E+00	0.00E+00	0.00E+00
	5900000000	-8.76E-02	-2.24E-01	6.60E-01	3.89E-01	0.00E+00	0.00E+00	0.00E+00	0.00E+00
	5950000000	-1.61E-02	-2.32E-01	5.92E-01	5.05E-01	0.00E+00	0.00E+00	0.00E+00	0.00E+00
	6000000000	-1.24E-01	-2.73E-01	7.47E-01	4.37E-02	0.00E+00	0.00E+00	0.00E+00	0.00E+00
