! NanoVNA-App									
! Date: 2024-03-21 00:32:28									
! Start: 1GHz Stop: 6GHz Points: 101									
! S-Parameter data: F S11 S21 S12 S22									
# Hz S RI R 50									
!	Frequency	S11_Real	S11_Imag	S21_Real	S21_Imag	S12_Real	S12_Imag	S22_Real	S22_Imag
	1000000000	1.21E-01	-2.30E-02	-5.56E-01	-8.77E-01	0.00E+00	0.00E+00	0.00E+00	0.00E+00
	1050000000	5.24E-02	-2.23E-02	-3.75E-01	-9.64E-01	0.00E+00	0.00E+00	0.00E+00	0.00E+00
	1100000000	4.95E-02	-1.11E-02	-1.69E-01	-1.02E+00	0.00E+00	0.00E+00	0.00E+00	0.00E+00
	1150000000	2.98E-02	-4.66E-02	3.60E-02	-1.03E+00	0.00E+00	0.00E+00	0.00E+00	0.00E+00
	1200000000	-5.07E-02	-3.63E-02	2.43E-01	-9.90E-01	0.00E+00	0.00E+00	0.00E+00	0.00E+00
	1250000000	-7.80E-02	6.68E-02	4.49E-01	-9.10E-01	0.00E+00	0.00E+00	0.00E+00	0.00E+00
	1300000000	1.52E-02	1.35E-01	6.30E-01	-8.02E-01	0.00E+00	0.00E+00	0.00E+00	0.00E+00
	1350000000	1.00E-01	6.54E-02	7.70E-01	-6.55E-01	0.00E+00	0.00E+00	0.00E+00	0.00E+00
	1400000000	7.30E-02	4.62E-03	9.01E-01	-4.85E-01	0.00E+00	0.00E+00	0.00E+00	0.00E+00
	1450000000	1.76E-02	2.23E-02	9.74E-01	-3.01E-01	0.00E+00	0.00E+00	0.00E+00	0.00E+00
	1500000000	5.23E-02	6.39E-02	1.00E+00	-1.02E-01	0.00E+00	0.00E+00	0.00E+00	0.00E+00
	1550000000	9.54E-02	5.94E-03	9.91E-01	9.91E-02	0.00E+00	0.00E+00	0.00E+00	0.00E+00
	1600000000	1.26E-02	-5.65E-02	9.46E-01	2.91E-01	0.00E+00	0.00E+00	0.00E+00	0.00E+00
	1650000000	-9.29E-02	3.84E-02	8.59E-01	4.62E-01	0.00E+00	0.00E+00	0.00E+00	0.00E+00
	1700000000	-2.37E-02	1.97E-01	7.31E-01	6.04E-01	0.00E+00	0.00E+00	0.00E+00	0.00E+00
	1750000000	1.61E-01	1.96E-01	5.76E-01	7.35E-01	0.00E+00	0.00E+00	0.00E+00	0.00E+00
	1800000000	2.37E-01	4.05E-02	4.24E-01	8.44E-01	0.00E+00	0.00E+00	0.00E+00	0.00E+00
	1850000000	1.52E-01	-7.37E-02	2.70E-01	8.98E-01	0.00E+00	0.00E+00	0.00E+00	0.00E+00
	1900000000	6.31E-02	-5.63E-02	1.25E-01	9.13E-01	0.00E+00	0.00E+00	0.00E+00	0.00E+00
	1950000000	5.17E-02	-2.08E-02	8.32E-03	8.89E-01	0.00E+00	0.00E+00	0.00E+00	0.00E+00
	2000000000	7.49E-02	-2.05E-02	-4.92E-02	8.09E-01	0.00E+00	0.00E+00	0.00E+00	0.00E+00
	2050000000	5.94E-02	-1.93E-01	-3.56E-02	5.64E-01	0.00E+00	0.00E+00	0.00E+00	0.00E+00
	2100000000	-3.95E-01	-3.97E-02	-2.81E-01	2.00E-01	0.00E+00	0.00E+00	0.00E+00	0.00E+00
	2150000000	-1.93E-01	4.68E-01	-4.98E-01	6.58E-02	0.00E+00	0.00E+00	0.00E+00	0.00E+00
	2200000000	2.64E-01	4.83E-01	-6.00E-01	-5.03E-02	0.00E+00	0.00E+00	0.00E+00	0.00E+00
	2250000000	5.12E-01	1.80E-01	-6.36E-01	-1.62E-01	0.00E+00	0.00E+00	0.00E+00	0.00E+00
	2300000000	4.62E-01	-1.64E-01	-6.10E-01	-2.70E-01	0.00E+00	0.00E+00	0.00E+00	0.00E+00
	2350000000	2.10E-01	-3.49E-01	-5.40E-01	-3.79E-01	0.00E+00	0.00E+00	0.00E+00	0.00E+00
	2400000000	-7.75E-02	-3.15E-01	-4.56E-01	-4.73E-01	0.00E+00	0.00E+00	0.00E+00	0.00E+00
	2450000000	-2.40E-01	-8.30E-02	-3.67E-01	-5.33E-01	0.00E+00	0.00E+00	0.00E+00	0.00E+00
	2500000000	-1.25E-01	1.31E-01	-3.01E-01	-5.02E-01	0.00E+00	0.00E+00	0.00E+00	0.00E+00
	2550000000	-1.61E-01	1.36E-01	-3.13E-02	-3.42E-01	0.00E+00	0.00E+00	0.00E+00	0.00E+00
	2600000000	4.21E-02	3.74E-01	2.17E-01	-4.02E-01	0.00E+00	0.00E+00	0.00E+00	0.00E+00
	2650000000	3.36E-01	2.64E-01	3.57E-01	-3.82E-01	0.00E+00	0.00E+00	0.00E+00	0.00E+00
	2700000000	4.09E-01	-1.37E-02	4.87E-01	-3.04E-01	0.00E+00	0.00E+00	0.00E+00	0.00E+00
	2750000000	2.57E-01	-2.17E-01	5.92E-01	-1.95E-01	0.00E+00	0.00E+00	0.00E+00	0.00E+00
	2800000000	4.54E-02	-2.28E-01	6.84E-01	-6.91E-02	0.00E+00	0.00E+00	0.00E+00	0.00E+00
	2850000000	-6.87E-02	-9.92E-02	7.27E-01	4.87E-02	0.00E+00	0.00E+00	0.00E+00	0.00E+00
	2900000000	-5.19E-02	3.15E-02	7.10E-01	1.72E-01	0.00E+00	0.00E+00	0.00E+00	0.00E+00
	2950000000	1.22E-02	8.05E-02	6.36E-01	3.48E-01	0.00E+00	0.00E+00	0.00E+00	0.00E+00
	3000000000	1.05E-01	1.29E-01	5.94E-01	4.98E-01	0.00E+00	0.00E+00	0.00E+00	0.00E+00
	3050000000	2.19E-01	6.49E-02	4.97E-01	6.16E-01	0.00E+00	0.00E+00	0.00E+00	0.00E+00
	3100000000	2.33E-01	-6.43E-02	3.65E-01	7.26E-01	0.00E+00	0.00E+00	0.00E+00	0.00E+00
	3150000000	1.41E-01	-1.44E-01	2.37E-01	8.11E-01	0.00E+00	0.00E+00	0.00E+00	0.00E+00
	3200000000	4.36E-02	-1.13E-01	1.00E-01	8.37E-01	0.00E+00	0.00E+00	0.00E+00	0.00E+00
	3250000000	2.43E-02	-3.63E-02	-6.25E-02	8.27E-01	0.00E+00	0.00E+00	0.00E+00	0.00E+00
	3300000000	5.78E-02	7.94E-03	-2.21E-01	7.94E-01	0.00E+00	0.00E+00	0.00E+00	0.00E+00
	3350000000	8.97E-02	1.61E-02	-3.68E-01	7.31E-01	0.00E+00	0.00E+00	0.00E+00	0.00E+00
	3400000000	9.44E-02	3.15E-02	-4.82E-01	6.49E-01	0.00E+00	0.00E+00	0.00E+00	0.00E+00
	3450000000	1.85E-01	9.57E-02	-5.08E-01	5.08E-01	0.00E+00	0.00E+00	0.00E+00	0.00E+00
	3500000000	2.77E-01	-5.02E-03	-5.72E-01	2.79E-01	0.00E+00	0.00E+00	0.00E+00	0.00E+00
	3550000000	2.70E-01	-1.50E-01	-6.44E-01	3.54E-02	0.00E+00	0.00E+00	0.00E+00	0.00E+00
	3600000000	1.51E-01	-1.98E-01	-7.14E-01	-1.36E-01	0.00E+00	0.00E+00	0.00E+00	0.00E+00
	3650000000	7.61E-02	-1.74E-01	-7.05E-01	-2.96E-01	0.00E+00	0.00E+00	0.00E+00	0.00E+00
	3700000000	2.03E-02	-1.36E-01	-6.52E-01	-4.70E-01	0.00E+00	0.00E+00	0.00E+00	0.00E+00
	3750000000	-1.69E-02	-6.04E-02	-5.80E-01	-6.21E-01	0.00E+00	0.00E+00	0.00E+00	0.00E+00
	3800000000	1.64E-02	2.62E-02	-4.73E-01	-7.21E-01	0.00E+00	0.00E+00	0.00E+00	0.00E+00
	3850000000	8.44E-02	4.24E-02	-3.09E-01	-7.94E-01	0.00E+00	0.00E+00	0.00E+00	0.00E+00
	3900000000	1.03E-01	3.67E-02	-1.33E-01	-8.56E-01	0.00E+00	0.00E+00	0.00E+00	0.00E+00
	3950000000	1.39E-01	8.35E-02	3.40E-02	-8.55E-01	0.00E+00	0.00E+00	0.00E+00	0.00E+00
	4000000000	2.72E-01	8.07E-02	2.38E-01	-8.07E-01	0.00E+00	0.00E+00	0.00E+00	0.00E+00
	4050000000	3.79E-01	-8.00E-02	4.43E-01	-7.58E-01	0.00E+00	0.00E+00	0.00E+00	0.00E+00
	4100000000	3.05E-01	-2.94E-01	5.89E-01	-6.82E-01	0.00E+00	0.00E+00	0.00E+00	0.00E+00
	4150000000	8.79E-02	-3.76E-01	7.20E-01	-5.33E-01	0.00E+00	0.00E+00	0.00E+00	0.00E+00
	4200000000	-9.12E-02	-2.72E-01	8.49E-01	-3.81E-01	0.00E+00	0.00E+00	0.00E+00	0.00E+00
	4250000000	-1.33E-01	-1.35E-01	9.11E-01	-2.39E-01	0.00E+00	0.00E+00	0.00E+00	0.00E+00
	4300000000	-1.50E-01	-3.30E-02	9.14E-01	-5.33E-02	0.00E+00	0.00E+00	0.00E+00	0.00E+00
	4350000000	-1.24E-01	1.38E-01	8.97E-01	1.31E-01	0.00E+00	0.00E+00	0.00E+00	0.00E+00
	4400000000	9.29E-02	2.81E-01	8.20E-01	2.93E-01	0.00E+00	0.00E+00	0.00E+00	0.00E+00
	4450000000	3.80E-01	1.73E-01	6.91E-01	4.70E-01	0.00E+00	0.00E+00	0.00E+00	0.00E+00
	4500000000	4.68E-01	-1.20E-01	5.54E-01	6.32E-01	0.00E+00	0.00E+00	0.00E+00	0.00E+00
	4550000000	3.13E-01	-3.45E-01	3.88E-01	7.39E-01	0.00E+00	0.00E+00	0.00E+00	0.00E+00
	4600000000	1.08E-01	-3.53E-01	1.83E-01	8.29E-01	0.00E+00	0.00E+00	0.00E+00	0.00E+00
	4650000000	3.57E-02	-3.05E-01	-1.46E-02	8.71E-01	0.00E+00	0.00E+00	0.00E+00	0.00E+00
	4700000000	-6.72E-02	-2.40E-01	-2.42E-01	8.85E-01	0.00E+00	0.00E+00	0.00E+00	0.00E+00
	4750000000	-1.08E-01	-1.67E-01	-4.26E-01	8.19E-01	0.00E+00	0.00E+00	0.00E+00	0.00E+00
	4800000000	-1.33E-01	-6.53E-04	-6.86E-01	7.35E-01	0.00E+00	0.00E+00	0.00E+00	0.00E+00
	4850000000	5.56E-02	1.35E-01	-9.23E-01	7.11E-01	0.00E+00	0.00E+00	0.00E+00	0.00E+00
	4900000000	2.51E-01	6.52E-03	-1.03E+00	6.77E-01	0.00E+00	0.00E+00	0.00E+00	0.00E+00
	4950000000	1.95E-01	-1.89E-01	-1.04E+00	5.45E-01	0.00E+00	0.00E+00	0.00E+00	0.00E+00
	5000000000	1.91E-02	-1.64E-01	-1.06E+00	3.57E-01	0.00E+00	0.00E+00	0.00E+00	0.00E+00
	5050000000	5.07E-02	9.20E-03	-1.08E+00	6.59E-02	0.00E+00	0.00E+00	0.00E+00	0.00E+00
	5100000000	2.50E-01	-1.99E-02	-1.08E+00	-2.74E-02	0.00E+00	0.00E+00	0.00E+00	0.00E+00
	5150000000	2.72E-01	-2.42E-01	-9.90E-01	-2.00E-01	0.00E+00	0.00E+00	0.00E+00	0.00E+00
	5200000000	7.00E-02	-3.47E-01	-8.73E-01	-3.70E-01	0.00E+00	0.00E+00	0.00E+00	0.00E+00
	5250000000	-7.56E-02	-2.34E-01	-7.44E-01	-5.44E-01	0.00E+00	0.00E+00	0.00E+00	0.00E+00
	5300000000	-3.61E-02	-1.45E-01	-6.05E-01	-6.81E-01	0.00E+00	0.00E+00	0.00E+00	0.00E+00
	5350000000	-5.30E-02	-1.86E-01	-4.53E-01	-7.41E-01	0.00E+00	0.00E+00	0.00E+00	0.00E+00
	5400000000	-1.59E-01	-1.13E-01	-2.40E-01	-7.96E-01	0.00E+00	0.00E+00	0.00E+00	0.00E+00
	5450000000	-9.96E-02	7.07E-02	-6.61E-02	-8.44E-01	0.00E+00	0.00E+00	0.00E+00	0.00E+00
	5500000000	1.23E-01	6.57E-02	6.84E-02	-8.06E-01	0.00E+00	0.00E+00	0.00E+00	0.00E+00
	5550000000	1.84E-01	-1.29E-01	2.41E-01	-6.91E-01	0.00E+00	0.00E+00	0.00E+00	0.00E+00
	5600000000	4.44E-02	-2.01E-01	3.97E-01	-5.60E-01	0.00E+00	0.00E+00	0.00E+00	0.00E+00
	5650000000	4.02E-02	-1.36E-01	5.52E-01	-4.09E-01	0.00E+00	0.00E+00	0.00E+00	0.00E+00
	5700000000	8.87E-02	-1.44E-01	6.61E-01	-2.74E-01	0.00E+00	0.00E+00	0.00E+00	0.00E+00
	5750000000	1.25E-01	-2.29E-01	7.12E-01	-1.14E-01	0.00E+00	0.00E+00	0.00E+00	0.00E+00
	5800000000	5.88E-02	-3.24E-01	7.33E-01	5.63E-02	0.00E+00	0.00E+00	0.00E+00	0.00E+00
	5850000000	-6.09E-02	-3.20E-01	7.02E-01	2.18E-01	0.00E+00	0.00E+00	0.00E+00	0.00E+00
	5900000000	-8.26E-02	-2.24E-01	6.59E-01	3.87E-01	0.00E+00	0.00E+00	0.00E+00	0.00E+00
	5950000000	-1.08E-02	-2.34E-01	5.94E-01	4.99E-01	0.00E+00	0.00E+00	0.00E+00	0.00E+00
	6000000000	-1.22E-01	-2.75E-01	7.45E-01	4.29E-02	0.00E+00	0.00E+00	0.00E+00	0.00E+00
