! NanoVNA-App
! Date: 2024-03-20 19:43:36
! Start: 1GHz Stop: 6GHz Points: 101
! S-Parameter data: F S11 S21 S12 S22
# Hz S RI R 50
!     Frequency           S11_Real           S11_Imag           S21_Real           S21_Imag           S12_Real           S12_Imag           S22_Real           S22_Imag
     1000000000    1.240399107e-01   -2.418557554e-02   -5.514222383e-01   -8.800901175e-01    0.000000000e+00    0.000000000e+00    0.000000000e+00    0.000000000e+00
     1050000000    5.351156741e-02   -2.350924723e-02   -3.701742589e-01   -9.663446546e-01    0.000000000e+00    0.000000000e+00    0.000000000e+00    0.000000000e+00
     1100000000    5.032956600e-02   -1.035333239e-02   -1.623443067e-01   -1.019139528e+00    0.000000000e+00    0.000000000e+00    0.000000000e+00    0.000000000e+00
     1150000000    3.206424043e-02   -4.508528486e-02    4.181785882e-02   -1.030638576e+00    0.000000000e+00    0.000000000e+00    0.000000000e+00    0.000000000e+00
     1200000000   -4.723289981e-02   -3.570798039e-02    2.488490492e-01   -9.879462123e-01    0.000000000e+00    0.000000000e+00    0.000000000e+00    0.000000000e+00
     1250000000   -7.549375296e-02    6.693648547e-02    4.529663026e-01   -9.070230722e-01    0.000000000e+00    0.000000000e+00    0.000000000e+00    0.000000000e+00
     1300000000    1.758366264e-02    1.362880617e-01    6.329811811e-01   -7.983424067e-01    0.000000000e+00    0.000000000e+00    0.000000000e+00    0.000000000e+00
     1350000000    1.036276743e-01    6.652463228e-02    7.743416429e-01   -6.480311155e-01    0.000000000e+00    0.000000000e+00    0.000000000e+00    0.000000000e+00
     1400000000    7.730656862e-02    4.842280410e-03    9.034875035e-01   -4.786715508e-01    0.000000000e+00    0.000000000e+00    0.000000000e+00    0.000000000e+00
     1450000000    1.968795061e-02    2.058082074e-02    9.750698209e-01   -2.946244180e-01    0.000000000e+00    0.000000000e+00    0.000000000e+00    0.000000000e+00
     1500000000    5.197395012e-02    6.337134540e-02    1.000783324e+00   -9.757006168e-02    0.000000000e+00    0.000000000e+00    0.000000000e+00    0.000000000e+00
     1550000000    9.438183159e-02    7.904787548e-03    9.893583059e-01    1.050396636e-01    0.000000000e+00    0.000000000e+00    0.000000000e+00    0.000000000e+00
     1600000000    1.262798719e-02   -5.264179036e-02    9.430726767e-01    2.982684076e-01    0.000000000e+00    0.000000000e+00    0.000000000e+00    0.000000000e+00
     1650000000   -9.110850841e-02    4.322782531e-02    8.527287245e-01    4.646839201e-01    0.000000000e+00    0.000000000e+00    0.000000000e+00    0.000000000e+00
     1700000000   -1.998347603e-02    2.008500844e-01    7.241742611e-01    6.067535281e-01    0.000000000e+00    0.000000000e+00    0.000000000e+00    0.000000000e+00
     1750000000    1.675097644e-01    1.978129596e-01    5.691426992e-01    7.371127605e-01    0.000000000e+00    0.000000000e+00    0.000000000e+00    0.000000000e+00
     1800000000    2.430691868e-01    3.835203499e-02    4.168060422e-01    8.443035483e-01    0.000000000e+00    0.000000000e+00    0.000000000e+00    0.000000000e+00
     1850000000    1.538919955e-01   -7.834287733e-02    2.633739412e-01    8.983080387e-01    0.000000000e+00    0.000000000e+00    0.000000000e+00    0.000000000e+00
     1900000000    5.956916139e-02   -5.967503041e-02    1.179566681e-01    9.108139873e-01    0.000000000e+00    0.000000000e+00    0.000000000e+00    0.000000000e+00
     1950000000    4.629709944e-02   -2.041861229e-02    4.438379314e-03    8.868530989e-01    0.000000000e+00    0.000000000e+00    0.000000000e+00    0.000000000e+00
     2000000000    6.812994182e-02   -1.658981852e-02   -5.149744079e-02    8.036423326e-01    0.000000000e+00    0.000000000e+00    0.000000000e+00    0.000000000e+00
     2050000000    5.426587164e-02   -1.778280288e-01   -3.844439238e-02    5.642912388e-01    0.000000000e+00    0.000000000e+00    0.000000000e+00    0.000000000e+00
     2100000000   -3.865570426e-01   -3.174418584e-02   -2.676971555e-01    2.013354003e-01    0.000000000e+00    0.000000000e+00    0.000000000e+00    0.000000000e+00
     2150000000   -1.801992655e-01    4.686620831e-01   -4.847560227e-01    5.950043723e-02    0.000000000e+00    0.000000000e+00    0.000000000e+00    0.000000000e+00
     2200000000    2.742367685e-01    4.754140973e-01   -5.840101838e-01   -5.734811723e-02    0.000000000e+00    0.000000000e+00    0.000000000e+00    0.000000000e+00
     2250000000    5.150749683e-01    1.666755378e-01   -6.169096828e-01   -1.679450423e-01    0.000000000e+00    0.000000000e+00    0.000000000e+00    0.000000000e+00
     2300000000    4.538913667e-01   -1.756505072e-01   -5.880415440e-01   -2.771357298e-01    0.000000000e+00    0.000000000e+00    0.000000000e+00    0.000000000e+00
     2350000000    1.935972720e-01   -3.511495590e-01   -5.171289444e-01   -3.855010867e-01    0.000000000e+00    0.000000000e+00    0.000000000e+00    0.000000000e+00
     2400000000   -9.394019097e-02   -2.973947823e-01   -4.292845428e-01   -4.772668481e-01    0.000000000e+00    0.000000000e+00    0.000000000e+00    0.000000000e+00
     2450000000   -2.352722138e-01   -5.743727461e-02   -3.386629224e-01   -5.349931121e-01    0.000000000e+00    0.000000000e+00    0.000000000e+00    0.000000000e+00
     2500000000   -1.055170074e-01    1.437410563e-01   -2.701981664e-01   -5.052433014e-01    0.000000000e+00    0.000000000e+00    0.000000000e+00    0.000000000e+00
     2550000000   -1.334795207e-01    1.196403801e-01   -1.171389967e-02   -3.332562745e-01    0.000000000e+00    0.000000000e+00    0.000000000e+00    0.000000000e+00
     2600000000    4.176283628e-02    3.527040780e-01    2.511309385e-01   -3.890942931e-01    0.000000000e+00    0.000000000e+00    0.000000000e+00    0.000000000e+00
     2650000000    3.247417808e-01    2.522196770e-01    3.962995708e-01   -3.729129136e-01    0.000000000e+00    0.000000000e+00    0.000000000e+00    0.000000000e+00
     2700000000    3.906064928e-01   -1.845429838e-02    5.151700974e-01   -2.973172069e-01    0.000000000e+00    0.000000000e+00    0.000000000e+00    0.000000000e+00
     2750000000    2.430008352e-01   -2.056806386e-01    6.206897497e-01   -1.825464815e-01    0.000000000e+00    0.000000000e+00    0.000000000e+00    0.000000000e+00
     2800000000    3.877287358e-02   -2.049938291e-01    7.043386698e-01   -6.145746633e-02    0.000000000e+00    0.000000000e+00    0.000000000e+00    0.000000000e+00
     2850000000   -5.403475463e-02   -8.539184928e-02    7.454133034e-01    6.304795295e-02    0.000000000e+00    0.000000000e+00    0.000000000e+00    0.000000000e+00
     2900000000   -3.292140365e-02    2.891618386e-02    7.236884236e-01    1.912262440e-01    0.000000000e+00    0.000000000e+00    0.000000000e+00    0.000000000e+00
     2950000000    1.953968406e-02    6.586924195e-02    6.438795328e-01    3.662818968e-01    0.000000000e+00    0.000000000e+00    0.000000000e+00    0.000000000e+00
     3000000000    9.967534989e-02    1.177101657e-01    5.993670225e-01    5.215771198e-01    0.000000000e+00    0.000000000e+00    0.000000000e+00    0.000000000e+00
     3050000000    2.090954781e-01    6.221882999e-02    4.950655699e-01    6.357257366e-01    0.000000000e+00    0.000000000e+00    0.000000000e+00    0.000000000e+00
     3100000000    2.245084196e-01   -6.220414117e-02    3.581959903e-01    7.430595160e-01    0.000000000e+00    0.000000000e+00    0.000000000e+00    0.000000000e+00
     3150000000    1.341174543e-01   -1.372014880e-01    2.259746194e-01    8.269345760e-01    0.000000000e+00    0.000000000e+00    0.000000000e+00    0.000000000e+00
     3200000000    4.271295667e-02   -1.031942591e-01    8.431963623e-02    8.522915244e-01    0.000000000e+00    0.000000000e+00    0.000000000e+00    0.000000000e+00
     3250000000    2.998626977e-02   -2.894316427e-02   -8.112349361e-02    8.400565982e-01    0.000000000e+00    0.000000000e+00    0.000000000e+00    0.000000000e+00
     3300000000    6.587944180e-02    7.739309687e-03   -2.438287437e-01    8.061563969e-01    0.000000000e+00    0.000000000e+00    0.000000000e+00    0.000000000e+00
     3350000000    9.285328537e-02    1.169349626e-02   -3.882516623e-01    7.376652956e-01    0.000000000e+00    0.000000000e+00    0.000000000e+00    0.000000000e+00
     3400000000    9.491325170e-02    2.748673968e-02   -5.000517368e-01    6.528765559e-01    0.000000000e+00    0.000000000e+00    0.000000000e+00    0.000000000e+00
     3450000000    1.840178818e-01    9.375306964e-02   -5.253617167e-01    5.052903891e-01    0.000000000e+00    0.000000000e+00    0.000000000e+00    0.000000000e+00
     3500000000    2.758516669e-01   -1.418732572e-02   -5.881964564e-01    2.699356675e-01    0.000000000e+00    0.000000000e+00    0.000000000e+00    0.000000000e+00
     3550000000    2.566999495e-01   -1.592851281e-01   -6.643009186e-01    1.758286729e-02    0.000000000e+00    0.000000000e+00    0.000000000e+00    0.000000000e+00
     3600000000    1.356261373e-01   -1.890036911e-01   -7.378846407e-01   -1.543793082e-01    0.000000000e+00    0.000000000e+00    0.000000000e+00    0.000000000e+00
     3650000000    7.630269229e-02   -1.579985023e-01   -7.263859510e-01   -3.102515340e-01    0.000000000e+00    0.000000000e+00    0.000000000e+00    0.000000000e+00
     3700000000    3.209943697e-02   -1.287290454e-01   -6.682229042e-01   -4.847947657e-01    0.000000000e+00    0.000000000e+00    0.000000000e+00    0.000000000e+00
     3750000000   -5.141017027e-03   -6.514780968e-02   -5.957300663e-01   -6.345124841e-01    0.000000000e+00    0.000000000e+00    0.000000000e+00    0.000000000e+00
     3800000000    2.168160118e-02    1.452152431e-02   -4.824435413e-01   -7.356440425e-01    0.000000000e+00    0.000000000e+00    0.000000000e+00    0.000000000e+00
     3850000000    8.058542758e-02    3.047376312e-02   -3.138295412e-01   -8.110472560e-01    0.000000000e+00    0.000000000e+00    0.000000000e+00    0.000000000e+00
     3900000000    9.074517339e-02    3.156548738e-02   -1.351768970e-01   -8.711794615e-01    0.000000000e+00    0.000000000e+00    0.000000000e+00    0.000000000e+00
     3950000000    1.298341900e-01    8.924347907e-02    3.196897358e-02   -8.673803806e-01    0.000000000e+00    0.000000000e+00    0.000000000e+00    0.000000000e+00
     4000000000    2.745650709e-01    8.920583129e-02    2.358759195e-01   -8.160977364e-01    0.000000000e+00    0.000000000e+00    0.000000000e+00    0.000000000e+00
     4050000000    3.861029446e-01   -7.649266720e-02    4.438443780e-01   -7.630965710e-01    0.000000000e+00    0.000000000e+00    0.000000000e+00    0.000000000e+00
     4100000000    3.122811615e-01   -2.960581481e-01    5.885221958e-01   -6.862567663e-01    0.000000000e+00    0.000000000e+00    0.000000000e+00    0.000000000e+00
     4150000000    9.107549489e-02   -3.806890845e-01    7.195912600e-01   -5.350452065e-01    0.000000000e+00    0.000000000e+00    0.000000000e+00    0.000000000e+00
     4200000000   -9.208068997e-02   -2.759070694e-01    8.502336740e-01   -3.761447072e-01    0.000000000e+00    0.000000000e+00    0.000000000e+00    0.000000000e+00
     4250000000   -1.371027380e-01   -1.357876062e-01    9.139093757e-01   -2.322429121e-01    0.000000000e+00    0.000000000e+00    0.000000000e+00    0.000000000e+00
     4300000000   -1.532493532e-01   -3.035202995e-02    9.148352742e-01   -4.480904341e-02    0.000000000e+00    0.000000000e+00    0.000000000e+00    0.000000000e+00
     4350000000   -1.240738332e-01    1.437827498e-01    8.972460032e-01    1.388773918e-01    0.000000000e+00    0.000000000e+00    0.000000000e+00    0.000000000e+00
     4400000000    9.670644999e-02    2.864227593e-01    8.176026344e-01    3.080262840e-01    0.000000000e+00    0.000000000e+00    0.000000000e+00    0.000000000e+00
     4450000000    3.858509660e-01    1.747459024e-01    6.891685724e-01    4.802164435e-01    0.000000000e+00    0.000000000e+00    0.000000000e+00    0.000000000e+00
     4500000000    4.724107981e-01   -1.197479665e-01    5.480182171e-01    6.429492235e-01    0.000000000e+00    0.000000000e+00    0.000000000e+00    0.000000000e+00
     4550000000    3.139222860e-01   -3.466973007e-01    3.791870773e-01    7.498340011e-01    0.000000000e+00    0.000000000e+00    0.000000000e+00    0.000000000e+00
     4600000000    1.040276289e-01   -3.527217209e-01    1.759798676e-01    8.385812044e-01    0.000000000e+00    0.000000000e+00    0.000000000e+00    0.000000000e+00
     4650000000    3.276216239e-02   -2.999577224e-01   -2.048989385e-02    8.789291978e-01    0.000000000e+00    0.000000000e+00    0.000000000e+00    0.000000000e+00
     4700000000   -7.147709280e-02   -2.392969579e-01   -2.566494942e-01    8.851724267e-01    0.000000000e+00    0.000000000e+00    0.000000000e+00    0.000000000e+00
     4750000000   -1.127825975e-01   -1.615060568e-01   -4.426884651e-01    8.186030984e-01    0.000000000e+00    0.000000000e+00    0.000000000e+00    0.000000000e+00
     4800000000   -1.348587126e-01    8.586125448e-03   -6.996175647e-01    7.340741158e-01    0.000000000e+00    0.000000000e+00    0.000000000e+00    0.000000000e+00
     4850000000    5.507761613e-02    1.413400322e-01   -9.418343306e-01    7.038779855e-01    0.000000000e+00    0.000000000e+00    0.000000000e+00    0.000000000e+00
     4900000000    2.516478896e-01    1.115105581e-02   -1.047508597e+00    6.672012210e-01    0.000000000e+00    0.000000000e+00    0.000000000e+00    0.000000000e+00
     4950000000    1.963161975e-01   -1.870973557e-01   -1.056936979e+00    5.361143351e-01    0.000000000e+00    0.000000000e+00    0.000000000e+00    0.000000000e+00
     5000000000    1.827282645e-02   -1.647135615e-01   -1.075049043e+00    3.441511691e-01    0.000000000e+00    0.000000000e+00    0.000000000e+00    0.000000000e+00
     5050000000    4.600302503e-02    1.072858274e-02   -1.091369867e+00    5.619944260e-02    0.000000000e+00    0.000000000e+00    0.000000000e+00    0.000000000e+00
     5100000000    2.464450598e-01   -1.787926070e-02   -1.088674068e+00   -4.851175472e-02    0.000000000e+00    0.000000000e+00    0.000000000e+00    0.000000000e+00
     5150000000    2.671700716e-01   -2.402688414e-01   -9.976785779e-01   -2.151296586e-01    0.000000000e+00    0.000000000e+00    0.000000000e+00    0.000000000e+00
     5200000000    6.660734862e-02   -3.449565470e-01   -8.736823797e-01   -3.893012702e-01    0.000000000e+00    0.000000000e+00    0.000000000e+00    0.000000000e+00
     5250000000   -8.228190988e-02   -2.287847847e-01   -7.412822843e-01   -5.584891438e-01    0.000000000e+00    0.000000000e+00    0.000000000e+00    0.000000000e+00
     5300000000   -4.034857452e-02   -1.401836276e-01   -5.957701206e-01   -6.991945505e-01    0.000000000e+00    0.000000000e+00    0.000000000e+00    0.000000000e+00
     5350000000   -5.658810213e-02   -1.839397252e-01   -4.442224503e-01   -7.581675649e-01    0.000000000e+00    0.000000000e+00    0.000000000e+00    0.000000000e+00
     5400000000   -1.635565311e-01   -1.096640378e-01   -2.331121415e-01   -8.057910800e-01    0.000000000e+00    0.000000000e+00    0.000000000e+00    0.000000000e+00
     5450000000   -1.058026105e-01    7.480715215e-02   -4.749786109e-02   -8.530381322e-01    0.000000000e+00    0.000000000e+00    0.000000000e+00    0.000000000e+00
     5500000000    1.202951297e-01    7.262683660e-02    8.525218815e-02   -8.133589029e-01    0.000000000e+00    0.000000000e+00    0.000000000e+00    0.000000000e+00
     5550000000    1.824539602e-01   -1.266477108e-01    2.518321872e-01   -6.936784387e-01    0.000000000e+00    0.000000000e+00    0.000000000e+00    0.000000000e+00
     5600000000    4.180302471e-02   -2.053557783e-01    4.113632739e-01   -5.590641499e-01    0.000000000e+00    0.000000000e+00    0.000000000e+00    0.000000000e+00
     5650000000    2.833885141e-02   -1.323740184e-01    5.617458820e-01   -4.041416645e-01    0.000000000e+00    0.000000000e+00    0.000000000e+00    0.000000000e+00
     5700000000    8.129139245e-02   -1.386993825e-01    6.717430949e-01   -2.646267712e-01    0.000000000e+00    0.000000000e+00    0.000000000e+00    0.000000000e+00
     5750000000    1.194614992e-01   -2.263595760e-01    7.215986252e-01   -9.897091240e-02    0.000000000e+00    0.000000000e+00    0.000000000e+00    0.000000000e+00
     5800000000    5.013797805e-02   -3.207356930e-01    7.387827635e-01    6.682114303e-02    0.000000000e+00    0.000000000e+00    0.000000000e+00    0.000000000e+00
     5850000000   -6.699112058e-02   -3.171474636e-01    7.053948641e-01    2.344479263e-01    0.000000000e+00    0.000000000e+00    0.000000000e+00    0.000000000e+00
     5900000000   -9.154578298e-02   -2.220591158e-01    6.580437422e-01    4.032027423e-01    0.000000000e+00    0.000000000e+00    0.000000000e+00    0.000000000e+00
     5950000000   -2.496688813e-02   -2.299659252e-01    5.913647413e-01    5.146662593e-01    0.000000000e+00    0.000000000e+00    0.000000000e+00    0.000000000e+00
     6000000000   -1.335415095e-01   -2.669897974e-01    7.536092997e-01    5.581504852e-02    0.000000000e+00    0.000000000e+00    0.000000000e+00    0.000000000e+00
