! NanoVNA-App									
! Date: 2024-03-20 20:55:39									
! Start: 1GHz Stop: 6GHz Points: 101									
! S-Parameter data: F S11 S21 S12 S22									
# Hz S RI R 50									
!	Frequency	S11_Real	S11_Imag	S21_Real	S21_Imag	S12_Real	S12_Imag	S22_Real	S22_Imag
	1000000000	1.23E-01	-2.37E-02	-5.54E-01	-8.80E-01	0.00E+00	0.00E+00	0.00E+00	0.00E+00
	1050000000	5.32E-02	-2.33E-02	-3.73E-01	-9.66E-01	0.00E+00	0.00E+00	0.00E+00	0.00E+00
	1100000000	5.00E-02	-1.11E-02	-1.66E-01	-1.02E+00	0.00E+00	0.00E+00	0.00E+00	0.00E+00
	1150000000	3.08E-02	-4.56E-02	4.10E-02	-1.03E+00	0.00E+00	0.00E+00	0.00E+00	0.00E+00
	1200000000	-4.91E-02	-3.58E-02	2.47E-01	-9.89E-01	0.00E+00	0.00E+00	0.00E+00	0.00E+00
	1250000000	-7.67E-02	6.75E-02	4.51E-01	-9.09E-01	0.00E+00	0.00E+00	0.00E+00	0.00E+00
	1300000000	1.65E-02	1.36E-01	6.32E-01	-8.00E-01	0.00E+00	0.00E+00	0.00E+00	0.00E+00
	1350000000	1.03E-01	6.58E-02	7.72E-01	-6.51E-01	0.00E+00	0.00E+00	0.00E+00	0.00E+00
	1400000000	7.59E-02	5.03E-03	9.04E-01	-4.80E-01	0.00E+00	0.00E+00	0.00E+00	0.00E+00
	1450000000	1.95E-02	2.08E-02	9.74E-01	-2.98E-01	0.00E+00	0.00E+00	0.00E+00	0.00E+00
	1500000000	5.24E-02	6.23E-02	1.00E+00	-1.02E-01	0.00E+00	0.00E+00	0.00E+00	0.00E+00
	1550000000	9.36E-02	6.03E-03	9.90E-01	1.02E-01	0.00E+00	0.00E+00	0.00E+00	0.00E+00
	1600000000	1.07E-02	-5.41E-02	9.42E-01	2.92E-01	0.00E+00	0.00E+00	0.00E+00	0.00E+00
	1650000000	-9.29E-02	4.32E-02	8.56E-01	4.62E-01	0.00E+00	0.00E+00	0.00E+00	0.00E+00
	1700000000	-1.98E-02	2.01E-01	7.27E-01	6.03E-01	0.00E+00	0.00E+00	0.00E+00	0.00E+00
	1750000000	1.67E-01	1.98E-01	5.70E-01	7.35E-01	0.00E+00	0.00E+00	0.00E+00	0.00E+00
	1800000000	2.43E-01	3.72E-02	4.20E-01	8.42E-01	0.00E+00	0.00E+00	0.00E+00	0.00E+00
	1850000000	1.53E-01	-7.94E-02	2.66E-01	8.95E-01	0.00E+00	0.00E+00	0.00E+00	0.00E+00
	1900000000	5.80E-02	-6.02E-02	1.22E-01	9.07E-01	0.00E+00	0.00E+00	0.00E+00	0.00E+00
	1950000000	4.49E-02	-1.87E-02	5.95E-03	8.86E-01	0.00E+00	0.00E+00	0.00E+00	0.00E+00
	2000000000	7.13E-02	-1.40E-02	-5.08E-02	8.04E-01	0.00E+00	0.00E+00	0.00E+00	0.00E+00
	2050000000	6.16E-02	-1.84E-01	-3.77E-02	5.58E-01	0.00E+00	0.00E+00	0.00E+00	0.00E+00
	2100000000	-3.92E-01	-3.45E-02	-2.75E-01	1.97E-01	0.00E+00	0.00E+00	0.00E+00	0.00E+00
	2150000000	-1.84E-01	4.69E-01	-4.92E-01	5.94E-02	0.00E+00	0.00E+00	0.00E+00	0.00E+00
	2200000000	2.71E-01	4.79E-01	-5.92E-01	-5.69E-02	0.00E+00	0.00E+00	0.00E+00	0.00E+00
	2250000000	5.15E-01	1.70E-01	-6.25E-01	-1.65E-01	0.00E+00	0.00E+00	0.00E+00	0.00E+00
	2300000000	4.56E-01	-1.74E-01	-5.96E-01	-2.73E-01	0.00E+00	0.00E+00	0.00E+00	0.00E+00
	2350000000	1.95E-01	-3.51E-01	-5.24E-01	-3.80E-01	0.00E+00	0.00E+00	0.00E+00	0.00E+00
	2400000000	-9.09E-02	-3.03E-01	-4.37E-01	-4.74E-01	0.00E+00	0.00E+00	0.00E+00	0.00E+00
	2450000000	-2.37E-01	-6.29E-02	-3.47E-01	-5.32E-01	0.00E+00	0.00E+00	0.00E+00	0.00E+00
	2500000000	-1.10E-01	1.40E-01	-2.79E-01	-5.00E-01	0.00E+00	0.00E+00	0.00E+00	0.00E+00
	2550000000	-1.40E-01	1.28E-01	-1.39E-02	-3.39E-01	0.00E+00	0.00E+00	0.00E+00	0.00E+00
	2600000000	4.62E-02	3.57E-01	2.40E-01	-3.94E-01	0.00E+00	0.00E+00	0.00E+00	0.00E+00
	2650000000	3.27E-01	2.50E-01	3.82E-01	-3.73E-01	0.00E+00	0.00E+00	0.00E+00	0.00E+00
	2700000000	3.91E-01	-1.80E-02	5.05E-01	-2.95E-01	0.00E+00	0.00E+00	0.00E+00	0.00E+00
	2750000000	2.42E-01	-2.07E-01	6.12E-01	-1.85E-01	0.00E+00	0.00E+00	0.00E+00	0.00E+00
	2800000000	4.38E-02	-2.09E-01	7.01E-01	-5.52E-02	0.00E+00	0.00E+00	0.00E+00	0.00E+00
	2850000000	-5.42E-02	-8.67E-02	7.41E-01	6.34E-02	0.00E+00	0.00E+00	0.00E+00	0.00E+00
	2900000000	-3.43E-02	2.80E-02	7.21E-01	1.89E-01	0.00E+00	0.00E+00	0.00E+00	0.00E+00
	2950000000	1.81E-02	6.55E-02	6.44E-01	3.63E-01	0.00E+00	0.00E+00	0.00E+00	0.00E+00
	3000000000	9.81E-02	1.19E-01	5.98E-01	5.17E-01	0.00E+00	0.00E+00	0.00E+00	0.00E+00
	3050000000	2.08E-01	6.35E-02	4.99E-01	6.32E-01	0.00E+00	0.00E+00	0.00E+00	0.00E+00
	3100000000	2.26E-01	-6.00E-02	3.62E-01	7.41E-01	0.00E+00	0.00E+00	0.00E+00	0.00E+00
	3150000000	1.37E-01	-1.37E-01	2.31E-01	8.25E-01	0.00E+00	0.00E+00	0.00E+00	0.00E+00
	3200000000	4.55E-02	-1.06E-01	9.17E-02	8.50E-01	0.00E+00	0.00E+00	0.00E+00	0.00E+00
	3250000000	3.07E-02	-3.26E-02	-7.48E-02	8.38E-01	0.00E+00	0.00E+00	0.00E+00	0.00E+00
	3300000000	6.33E-02	6.58E-03	-2.36E-01	8.03E-01	0.00E+00	0.00E+00	0.00E+00	0.00E+00
	3350000000	9.06E-02	1.16E-02	-3.80E-01	7.38E-01	0.00E+00	0.00E+00	0.00E+00	0.00E+00
	3400000000	9.38E-02	2.82E-02	-4.94E-01	6.53E-01	0.00E+00	0.00E+00	0.00E+00	0.00E+00
	3450000000	1.83E-01	9.45E-02	-5.20E-01	5.05E-01	0.00E+00	0.00E+00	0.00E+00	0.00E+00
	3500000000	2.74E-01	-7.46E-03	-5.83E-01	2.75E-01	0.00E+00	0.00E+00	0.00E+00	0.00E+00
	3550000000	2.64E-01	-1.54E-01	-6.60E-01	2.42E-02	0.00E+00	0.00E+00	0.00E+00	0.00E+00
	3600000000	1.43E-01	-1.93E-01	-7.31E-01	-1.45E-01	0.00E+00	0.00E+00	0.00E+00	0.00E+00
	3650000000	7.74E-02	-1.66E-01	-7.19E-01	-3.04E-01	0.00E+00	0.00E+00	0.00E+00	0.00E+00
	3700000000	2.65E-02	-1.33E-01	-6.63E-01	-4.79E-01	0.00E+00	0.00E+00	0.00E+00	0.00E+00
	3750000000	-1.08E-02	-6.27E-02	-5.90E-01	-6.29E-01	0.00E+00	0.00E+00	0.00E+00	0.00E+00
	3800000000	1.98E-02	2.11E-02	-4.79E-01	-7.30E-01	0.00E+00	0.00E+00	0.00E+00	0.00E+00
	3850000000	8.35E-02	3.61E-02	-3.12E-01	-8.05E-01	0.00E+00	0.00E+00	0.00E+00	0.00E+00
	3900000000	9.71E-02	3.25E-02	-1.33E-01	-8.67E-01	0.00E+00	0.00E+00	0.00E+00	0.00E+00
	3950000000	1.32E-01	8.58E-02	3.24E-02	-8.64E-01	0.00E+00	0.00E+00	0.00E+00	0.00E+00
	4000000000	2.71E-01	8.66E-02	2.39E-01	-8.14E-01	0.00E+00	0.00E+00	0.00E+00	0.00E+00
	4050000000	3.82E-01	-7.69E-02	4.44E-01	-7.63E-01	0.00E+00	0.00E+00	0.00E+00	0.00E+00
	4100000000	3.10E-01	-2.93E-01	5.91E-01	-6.85E-01	0.00E+00	0.00E+00	0.00E+00	0.00E+00
	4150000000	9.05E-02	-3.78E-01	7.19E-01	-5.36E-01	0.00E+00	0.00E+00	0.00E+00	0.00E+00
	4200000000	-9.03E-02	-2.75E-01	8.50E-01	-3.79E-01	0.00E+00	0.00E+00	0.00E+00	0.00E+00
	4250000000	-1.35E-01	-1.36E-01	9.14E-01	-2.37E-01	0.00E+00	0.00E+00	0.00E+00	0.00E+00
	4300000000	-1.52E-01	-3.28E-02	9.15E-01	-4.79E-02	0.00E+00	0.00E+00	0.00E+00	0.00E+00
	4350000000	-1.26E-01	1.40E-01	8.97E-01	1.38E-01	0.00E+00	0.00E+00	0.00E+00	0.00E+00
	4400000000	9.34E-02	2.85E-01	8.19E-01	3.00E-01	0.00E+00	0.00E+00	0.00E+00	0.00E+00
	4450000000	3.82E-01	1.76E-01	6.89E-01	4.76E-01	0.00E+00	0.00E+00	0.00E+00	0.00E+00
	4500000000	4.71E-01	-1.18E-01	5.50E-01	6.38E-01	0.00E+00	0.00E+00	0.00E+00	0.00E+00
	4550000000	3.17E-01	-3.44E-01	3.82E-01	7.44E-01	0.00E+00	0.00E+00	0.00E+00	0.00E+00
	4600000000	1.09E-01	-3.56E-01	1.76E-01	8.33E-01	0.00E+00	0.00E+00	0.00E+00	0.00E+00
	4650000000	3.12E-02	-3.05E-01	-2.24E-02	8.75E-01	0.00E+00	0.00E+00	0.00E+00	0.00E+00
	4700000000	-7.10E-02	-2.40E-01	-2.51E-01	8.86E-01	0.00E+00	0.00E+00	0.00E+00	0.00E+00
	4750000000	-1.12E-01	-1.64E-01	-4.36E-01	8.18E-01	0.00E+00	0.00E+00	0.00E+00	0.00E+00
	4800000000	-1.35E-01	5.18E-03	-6.94E-01	7.34E-01	0.00E+00	0.00E+00	0.00E+00	0.00E+00
	4850000000	5.41E-02	1.41E-01	-9.35E-01	7.05E-01	0.00E+00	0.00E+00	0.00E+00	0.00E+00
	4900000000	2.53E-01	1.17E-02	-1.04E+00	6.68E-01	0.00E+00	0.00E+00	0.00E+00	0.00E+00
	4950000000	1.99E-01	-1.88E-01	-1.05E+00	5.35E-01	0.00E+00	0.00E+00	0.00E+00	0.00E+00
	5000000000	2.05E-02	-1.68E-01	-1.07E+00	3.47E-01	0.00E+00	0.00E+00	0.00E+00	0.00E+00
	5050000000	4.62E-02	7.17E-03	-1.09E+00	5.68E-02	0.00E+00	0.00E+00	0.00E+00	0.00E+00
	5100000000	2.45E-01	-1.88E-02	-1.09E+00	-4.26E-02	0.00E+00	0.00E+00	0.00E+00	0.00E+00
	5150000000	2.69E-01	-2.39E-01	-9.95E-01	-2.14E-01	0.00E+00	0.00E+00	0.00E+00	0.00E+00
	5200000000	6.81E-02	-3.44E-01	-8.74E-01	-3.83E-01	0.00E+00	0.00E+00	0.00E+00	0.00E+00
	5250000000	-7.97E-02	-2.29E-01	-7.42E-01	-5.55E-01	0.00E+00	0.00E+00	0.00E+00	0.00E+00
	5300000000	-3.66E-02	-1.42E-01	-5.99E-01	-6.96E-01	0.00E+00	0.00E+00	0.00E+00	0.00E+00
	5350000000	-5.30E-02	-1.86E-01	-4.47E-01	-7.54E-01	0.00E+00	0.00E+00	0.00E+00	0.00E+00
	5400000000	-1.61E-01	-1.12E-01	-2.36E-01	-8.03E-01	0.00E+00	0.00E+00	0.00E+00	0.00E+00
	5450000000	-1.04E-01	7.14E-02	-5.41E-02	-8.50E-01	0.00E+00	0.00E+00	0.00E+00	0.00E+00
	5500000000	1.20E-01	6.81E-02	7.98E-02	-8.10E-01	0.00E+00	0.00E+00	0.00E+00	0.00E+00
	5550000000	1.80E-01	-1.28E-01	2.35E-01	-7.02E-01	0.00E+00	0.00E+00	0.00E+00	0.00E+00
	5600000000	4.18E-02	-1.99E-01	4.09E-01	-5.58E-01	0.00E+00	0.00E+00	0.00E+00	0.00E+00
	5650000000	3.77E-02	-1.33E-01	5.61E-01	-4.04E-01	0.00E+00	0.00E+00	0.00E+00	0.00E+00
	5700000000	8.57E-02	-1.43E-01	6.69E-01	-2.68E-01	0.00E+00	0.00E+00	0.00E+00	0.00E+00
	5750000000	1.23E-01	-2.28E-01	7.19E-01	-1.04E-01	0.00E+00	0.00E+00	0.00E+00	0.00E+00
	5800000000	5.44E-02	-3.23E-01	7.38E-01	6.70E-02	0.00E+00	0.00E+00	0.00E+00	0.00E+00
	5850000000	-6.73E-02	-3.19E-01	7.06E-01	2.30E-01	0.00E+00	0.00E+00	0.00E+00	0.00E+00
	5900000000	-8.94E-02	-2.22E-01	6.60E-01	4.00E-01	0.00E+00	0.00E+00	0.00E+00	0.00E+00
	5950000000	-2.01E-02	-2.29E-01	5.94E-01	5.10E-01	0.00E+00	0.00E+00	0.00E+00	0.00E+00
	6000000000	-1.27E-01	-2.70E-01	7.52E-01	4.88E-02	0.00E+00	0.00E+00	0.00E+00	0.00E+00
