! NanoVNA-App
! Date: 2024-03-20 19:41:49
! Start: 1GHz Stop: 6GHz Points: 101
! S-Parameter data: F S11 S21 S12 S22
# Hz S RI R 50
!     Frequency           S11_Real           S11_Imag           S21_Real           S21_Imag           S12_Real           S12_Imag           S22_Real           S22_Imag
     1000000000    1.241600662e-01   -2.442193218e-02   -5.505852103e-01   -8.809490800e-01    0.000000000e+00    0.000000000e+00    0.000000000e+00    0.000000000e+00
     1050000000    5.365817249e-02   -2.400007099e-02   -3.702191710e-01   -9.657132626e-01    0.000000000e+00    0.000000000e+00    0.000000000e+00    0.000000000e+00
     1100000000    5.023266748e-02   -1.057537738e-02   -1.629935205e-01   -1.019293547e+00    0.000000000e+00    0.000000000e+00    0.000000000e+00    0.000000000e+00
     1150000000    3.210966289e-02   -4.476270452e-02    4.302566499e-02   -1.031713367e+00    0.000000000e+00    0.000000000e+00    0.000000000e+00    0.000000000e+00
     1200000000   -4.711402580e-02   -3.556104377e-02    2.497896403e-01   -9.868190289e-01    0.000000000e+00    0.000000000e+00    0.000000000e+00    0.000000000e+00
     1250000000   -7.541843504e-02    6.706114858e-02    4.536981881e-01   -9.061067104e-01    0.000000000e+00    0.000000000e+00    0.000000000e+00    0.000000000e+00
     1300000000    1.778763905e-02    1.362850368e-01    6.330596209e-01   -7.974814773e-01    0.000000000e+00    0.000000000e+00    0.000000000e+00    0.000000000e+00
     1350000000    1.040324718e-01    6.638284773e-02    7.738977671e-01   -6.478777528e-01    0.000000000e+00    0.000000000e+00    0.000000000e+00    0.000000000e+00
     1400000000    7.754381001e-02    4.939415958e-03    9.050407410e-01   -4.765085578e-01    0.000000000e+00    0.000000000e+00    0.000000000e+00    0.000000000e+00
     1450000000    2.001837082e-02    2.005319297e-02    9.748442769e-01   -2.943162322e-01    0.000000000e+00    0.000000000e+00    0.000000000e+00    0.000000000e+00
     1500000000    5.164014176e-02    6.298375130e-02    1.001077414e+00   -9.650460631e-02    0.000000000e+00    0.000000000e+00    0.000000000e+00    0.000000000e+00
     1550000000    9.362894297e-02    7.927603088e-03    9.886390567e-01    1.063038930e-01    0.000000000e+00    0.000000000e+00    0.000000000e+00    0.000000000e+00
     1600000000    1.218197681e-02   -5.224213377e-02    9.398569465e-01    2.943542302e-01    0.000000000e+00    0.000000000e+00    0.000000000e+00    0.000000000e+00
     1650000000   -9.106349945e-02    4.404001683e-02    8.532977700e-01    4.662675261e-01    0.000000000e+00    0.000000000e+00    0.000000000e+00    0.000000000e+00
     1700000000   -1.883933507e-02    2.014576793e-01    7.235692739e-01    6.056178808e-01    0.000000000e+00    0.000000000e+00    0.000000000e+00    0.000000000e+00
     1750000000    1.683128625e-01    1.975386441e-01    5.670183301e-01    7.367472649e-01    0.000000000e+00    0.000000000e+00    0.000000000e+00    0.000000000e+00
     1800000000    2.436049283e-01    3.740441799e-02    4.150652289e-01    8.436236382e-01    0.000000000e+00    0.000000000e+00    0.000000000e+00    0.000000000e+00
     1850000000    1.535860449e-01   -7.952037454e-02    2.619248927e-01    8.974429369e-01    0.000000000e+00    0.000000000e+00    0.000000000e+00    0.000000000e+00
     1900000000    5.826794356e-02   -6.018047780e-02    1.205981001e-01    9.096300006e-01    0.000000000e+00    0.000000000e+00    0.000000000e+00    0.000000000e+00
     1950000000    4.490379617e-02   -1.974471658e-02    3.684855066e-03    8.853559494e-01    0.000000000e+00    0.000000000e+00    0.000000000e+00    0.000000000e+00
     2000000000    6.789631397e-02   -1.525320020e-02   -5.359721184e-02    8.019154072e-01    0.000000000e+00    0.000000000e+00    0.000000000e+00    0.000000000e+00
     2050000000    5.544828251e-02   -1.770417839e-01   -3.886829317e-02    5.628614426e-01    0.000000000e+00    0.000000000e+00    0.000000000e+00    0.000000000e+00
     2100000000   -3.848186731e-01   -3.092291020e-02   -2.684622407e-01    1.997598559e-01    0.000000000e+00    0.000000000e+00    0.000000000e+00    0.000000000e+00
     2150000000   -1.788331866e-01    4.678142667e-01   -4.840430319e-01    5.784673616e-02    0.000000000e+00    0.000000000e+00    0.000000000e+00    0.000000000e+00
     2200000000    2.744752765e-01    4.738989472e-01   -5.821959376e-01   -5.790122598e-02    0.000000000e+00    0.000000000e+00    0.000000000e+00    0.000000000e+00
     2250000000    5.144771338e-01    1.662998646e-01   -6.154085994e-01   -1.713835299e-01    0.000000000e+00    0.000000000e+00    0.000000000e+00    0.000000000e+00
     2300000000    4.517690539e-01   -1.769811064e-01   -5.857077241e-01   -2.783209682e-01    0.000000000e+00    0.000000000e+00    0.000000000e+00    0.000000000e+00
     2350000000    1.899603605e-01   -3.499803543e-01   -5.129966736e-01   -3.860137165e-01    0.000000000e+00    0.000000000e+00    0.000000000e+00    0.000000000e+00
     2400000000   -9.436950088e-02   -2.950871587e-01   -4.253416657e-01   -4.790951610e-01    0.000000000e+00    0.000000000e+00    0.000000000e+00    0.000000000e+00
     2450000000   -2.334149033e-01   -5.434815213e-02   -3.351725638e-01   -5.356237292e-01    0.000000000e+00    0.000000000e+00    0.000000000e+00    0.000000000e+00
     2500000000   -1.018734127e-01    1.438598633e-01   -2.656062543e-01   -5.054871440e-01    0.000000000e+00    0.000000000e+00    0.000000000e+00    0.000000000e+00
     2550000000   -1.311023682e-01    1.174411550e-01   -7.539719343e-03   -3.335194588e-01    0.000000000e+00    0.000000000e+00    0.000000000e+00    0.000000000e+00
     2600000000    4.116998240e-02    3.501398861e-01    2.565908134e-01   -3.888728321e-01    0.000000000e+00    0.000000000e+00    0.000000000e+00    0.000000000e+00
     2650000000    3.223154843e-01    2.501961887e-01    4.006814361e-01   -3.736351728e-01    0.000000000e+00    0.000000000e+00    0.000000000e+00    0.000000000e+00
     2700000000    3.892248869e-01   -1.541261189e-02    5.210630894e-01   -2.945155799e-01    0.000000000e+00    0.000000000e+00    0.000000000e+00    0.000000000e+00
     2750000000    2.401810735e-01   -2.037624866e-01    6.238674521e-01   -1.820713431e-01    0.000000000e+00    0.000000000e+00    0.000000000e+00    0.000000000e+00
     2800000000    4.298009351e-02   -1.988925785e-01    7.020466924e-01   -5.607673153e-02    0.000000000e+00    0.000000000e+00    0.000000000e+00    0.000000000e+00
     2850000000   -5.034707487e-02   -8.304173499e-02    7.472276688e-01    6.716732681e-02    0.000000000e+00    0.000000000e+00    0.000000000e+00    0.000000000e+00
     2900000000   -3.015214577e-02    2.717962116e-02    7.247676253e-01    1.943332553e-01    0.000000000e+00    0.000000000e+00    0.000000000e+00    0.000000000e+00
     2950000000    1.970556565e-02    6.252341717e-02    6.469495893e-01    3.667894602e-01    0.000000000e+00    0.000000000e+00    0.000000000e+00    0.000000000e+00
     3000000000    9.769093990e-02    1.159688979e-01    6.000555158e-01    5.244998336e-01    0.000000000e+00    0.000000000e+00    0.000000000e+00    0.000000000e+00
     3050000000    2.062082440e-01    6.221823022e-02    4.988817573e-01    6.349828839e-01    0.000000000e+00    0.000000000e+00    0.000000000e+00    0.000000000e+00
     3100000000    2.226941586e-01   -6.099642068e-02    3.593949378e-01    7.443769574e-01    0.000000000e+00    0.000000000e+00    0.000000000e+00    0.000000000e+00
     3150000000    1.340945363e-01   -1.359859556e-01    2.256805450e-01    8.291172385e-01    0.000000000e+00    0.000000000e+00    0.000000000e+00    0.000000000e+00
     3200000000    4.420450702e-02   -1.020861343e-01    8.247466385e-02    8.547215462e-01    0.000000000e+00    0.000000000e+00    0.000000000e+00    0.000000000e+00
     3250000000    3.137297556e-02   -2.936845087e-02   -8.038088679e-02    8.417167664e-01    0.000000000e+00    0.000000000e+00    0.000000000e+00    0.000000000e+00
     3300000000    6.629563868e-02    6.682225969e-03   -2.449744344e-01    8.075517416e-01    0.000000000e+00    0.000000000e+00    0.000000000e+00    0.000000000e+00
     3350000000    9.243790805e-02    1.050160732e-02   -3.881141841e-01    7.393691540e-01    0.000000000e+00    0.000000000e+00    0.000000000e+00    0.000000000e+00
     3400000000    9.448325634e-02    2.764699236e-02   -5.028284788e-01    6.526377797e-01    0.000000000e+00    0.000000000e+00    0.000000000e+00    0.000000000e+00
     3450000000    1.846635044e-01    9.280046076e-02   -5.256242156e-01    5.063659549e-01    0.000000000e+00    0.000000000e+00    0.000000000e+00    0.000000000e+00
     3500000000    2.751998901e-01   -1.507161837e-02   -5.896815062e-01    2.703118622e-01    0.000000000e+00    0.000000000e+00    0.000000000e+00    0.000000000e+00
     3550000000    2.560065985e-01   -1.583272815e-01   -6.673225760e-01    1.580340788e-02    0.000000000e+00    0.000000000e+00    0.000000000e+00    0.000000000e+00
     3600000000    1.355170161e-01   -1.880402267e-01   -7.393620014e-01   -1.534874141e-01    0.000000000e+00    0.000000000e+00    0.000000000e+00    0.000000000e+00
     3650000000    7.690481097e-02   -1.572601199e-01   -7.275248766e-01   -3.120304644e-01    0.000000000e+00    0.000000000e+00    0.000000000e+00    0.000000000e+00
     3700000000    3.276082128e-02   -1.287427098e-01   -6.707851887e-01   -4.859066308e-01    0.000000000e+00    0.000000000e+00    0.000000000e+00    0.000000000e+00
     3750000000   -5.480236374e-03   -6.597496569e-02   -5.950285792e-01   -6.368663907e-01    0.000000000e+00    0.000000000e+00    0.000000000e+00    0.000000000e+00
     3800000000    2.144451439e-02    1.409038622e-02   -4.850650132e-01   -7.348354459e-01    0.000000000e+00    0.000000000e+00    0.000000000e+00    0.000000000e+00
     3850000000    8.005445451e-02    3.026011027e-02   -3.142463863e-01   -8.124850392e-01    0.000000000e+00    0.000000000e+00    0.000000000e+00    0.000000000e+00
     3900000000    9.071624279e-02    3.169633076e-02   -1.369326115e-01   -8.726263046e-01    0.000000000e+00    0.000000000e+00    0.000000000e+00    0.000000000e+00
     3950000000    1.285765171e-01    8.996445686e-02    2.996658906e-02   -8.693692684e-01    0.000000000e+00    0.000000000e+00    0.000000000e+00    0.000000000e+00
     4000000000    2.730937600e-01    8.976520598e-02    2.354630530e-01   -8.163143992e-01    0.000000000e+00    0.000000000e+00    0.000000000e+00    0.000000000e+00
     4050000000    3.864983022e-01   -7.607106119e-02    4.447028339e-01   -7.640609741e-01    0.000000000e+00    0.000000000e+00    0.000000000e+00    0.000000000e+00
     4100000000    3.128416836e-01   -2.962765396e-01    5.901007056e-01   -6.861441731e-01    0.000000000e+00    0.000000000e+00    0.000000000e+00    0.000000000e+00
     4150000000    9.140597284e-02   -3.806912005e-01    7.207137942e-01   -5.345177054e-01    0.000000000e+00    0.000000000e+00    0.000000000e+00    0.000000000e+00
     4200000000   -9.161425382e-02   -2.769932449e-01    8.510698676e-01   -3.777356446e-01    0.000000000e+00    0.000000000e+00    0.000000000e+00    0.000000000e+00
     4250000000   -1.370054483e-01   -1.363896877e-01    9.148610234e-01   -2.309123427e-01    0.000000000e+00    0.000000000e+00    0.000000000e+00    0.000000000e+00
     4300000000   -1.532199979e-01   -2.997213602e-02    9.147479534e-01   -4.492011294e-02    0.000000000e+00    0.000000000e+00    0.000000000e+00    0.000000000e+00
     4350000000   -1.241278276e-01    1.440581977e-01    8.971878886e-01    1.420627832e-01    0.000000000e+00    0.000000000e+00    0.000000000e+00    0.000000000e+00
     4400000000    9.660172462e-02    2.867257893e-01    8.192622662e-01    3.045732379e-01    0.000000000e+00    0.000000000e+00    0.000000000e+00    0.000000000e+00
     4450000000    3.853961825e-01    1.756844819e-01    6.879106164e-01    4.819513857e-01    0.000000000e+00    0.000000000e+00    0.000000000e+00    0.000000000e+00
     4500000000    4.723675549e-01   -1.197350472e-01    5.477082133e-01    6.435718536e-01    0.000000000e+00    0.000000000e+00    0.000000000e+00    0.000000000e+00
     4550000000    3.143515885e-01   -3.464673758e-01    3.801754713e-01    7.493187189e-01    0.000000000e+00    0.000000000e+00    0.000000000e+00    0.000000000e+00
     4600000000    1.044535264e-01   -3.530505896e-01    1.774377227e-01    8.381862640e-01    0.000000000e+00    0.000000000e+00    0.000000000e+00    0.000000000e+00
     4650000000    3.240231052e-02   -3.002181351e-01   -2.500000037e-02    8.788306713e-01    0.000000000e+00    0.000000000e+00    0.000000000e+00    0.000000000e+00
     4700000000   -7.216281444e-02   -2.386917323e-01   -2.562816441e-01    8.859754205e-01    0.000000000e+00    0.000000000e+00    0.000000000e+00    0.000000000e+00
     4750000000   -1.134053990e-01   -1.605224162e-01   -4.439681470e-01    8.187562823e-01    0.000000000e+00    0.000000000e+00    0.000000000e+00    0.000000000e+00
     4800000000   -1.352066398e-01    8.379976265e-03   -6.993036866e-01    7.350404859e-01    0.000000000e+00    0.000000000e+00    0.000000000e+00    0.000000000e+00
     4850000000    5.474762619e-02    1.417428702e-01   -9.418129921e-01    7.047308683e-01    0.000000000e+00    0.000000000e+00    0.000000000e+00    0.000000000e+00
     4900000000    2.517066300e-01    1.156671904e-02   -1.049282670e+00    6.650330424e-01    0.000000000e+00    0.000000000e+00    0.000000000e+00    0.000000000e+00
     4950000000    1.964590847e-01   -1.868144125e-01   -1.058367729e+00    5.341801643e-01    0.000000000e+00    0.000000000e+00    0.000000000e+00    0.000000000e+00
     5000000000    1.851019450e-02   -1.655322164e-01   -1.076791167e+00    3.410229683e-01    0.000000000e+00    0.000000000e+00    0.000000000e+00    0.000000000e+00
     5050000000    4.543667287e-02    1.067103259e-02   -1.091514707e+00    5.376446620e-02    0.000000000e+00    0.000000000e+00    0.000000000e+00    0.000000000e+00
     5100000000    2.455772460e-01   -1.770307869e-02   -1.089081168e+00   -5.339602008e-02    0.000000000e+00    0.000000000e+00    0.000000000e+00    0.000000000e+00
     5150000000    2.666102648e-01   -2.400759161e-01   -9.980239868e-01   -2.156923264e-01    0.000000000e+00    0.000000000e+00    0.000000000e+00    0.000000000e+00
     5200000000    6.628729403e-02   -3.445536792e-01   -8.723526001e-01   -3.927913010e-01    0.000000000e+00    0.000000000e+00    0.000000000e+00    0.000000000e+00
     5250000000   -8.212261647e-02   -2.271017134e-01   -7.416719794e-01   -5.583413243e-01    0.000000000e+00    0.000000000e+00    0.000000000e+00    0.000000000e+00
     5300000000   -3.996300697e-02   -1.398711056e-01   -5.943786502e-01   -7.002508640e-01    0.000000000e+00    0.000000000e+00    0.000000000e+00    0.000000000e+00
     5350000000   -5.716104060e-02   -1.837711781e-01   -4.433724284e-01   -7.589482665e-01    0.000000000e+00    0.000000000e+00    0.000000000e+00    0.000000000e+00
     5400000000   -1.631519049e-01   -1.118425727e-01   -2.248445749e-01   -8.094868660e-01    0.000000000e+00    0.000000000e+00    0.000000000e+00    0.000000000e+00
     5450000000   -1.058844030e-01    7.404834777e-02   -4.324414954e-02   -8.533752561e-01    0.000000000e+00    0.000000000e+00    0.000000000e+00    0.000000000e+00
     5500000000    1.198373586e-01    7.272987068e-02    8.670268208e-02   -8.135458827e-01    0.000000000e+00    0.000000000e+00    0.000000000e+00    0.000000000e+00
     5550000000    1.829704791e-01   -1.257258058e-01    2.522090375e-01   -6.932306290e-01    0.000000000e+00    0.000000000e+00    0.000000000e+00    0.000000000e+00
     5600000000    4.160812125e-02   -2.044639289e-01    4.129867256e-01   -5.576370358e-01    0.000000000e+00    0.000000000e+00    0.000000000e+00    0.000000000e+00
     5650000000    2.865400910e-02   -1.325479895e-01    5.640127063e-01   -4.032767713e-01    0.000000000e+00    0.000000000e+00    0.000000000e+00    0.000000000e+00
     5700000000    8.249635994e-02   -1.381937116e-01    6.720910072e-01   -2.641721070e-01    0.000000000e+00    0.000000000e+00    0.000000000e+00    0.000000000e+00
     5750000000    1.183160618e-01   -2.262022048e-01    7.220644951e-01   -9.863656014e-02    0.000000000e+00    0.000000000e+00    0.000000000e+00    0.000000000e+00
     5800000000    5.231860653e-02   -3.199566007e-01    7.394136786e-01    6.992275268e-02    0.000000000e+00    0.000000000e+00    0.000000000e+00    0.000000000e+00
     5850000000   -6.839421391e-02   -3.165228963e-01    7.052577138e-01    2.349916399e-01    0.000000000e+00    0.000000000e+00    0.000000000e+00    0.000000000e+00
     5900000000   -8.981218934e-02   -2.222769260e-01    6.565123200e-01    4.070379138e-01    0.000000000e+00    0.000000000e+00    0.000000000e+00    0.000000000e+00
     5950000000   -2.562509850e-02   -2.295701951e-01    5.926440954e-01    5.146174431e-01    0.000000000e+00    0.000000000e+00    0.000000000e+00    0.000000000e+00
     6000000000   -1.334896833e-01   -2.663829625e-01    7.537884116e-01    5.756297335e-02    0.000000000e+00    0.000000000e+00    0.000000000e+00    0.000000000e+00
