! NanoVNA-App									
! Date: 2024-03-21 00:19:49									
! Start: 1GHz Stop: 6GHz Points: 101									
! S-Parameter data: F S11 S21 S12 S22									
# Hz S RI R 50									
!	Frequency	S11_Real	S11_Imag	S21_Real	S21_Imag	S12_Real	S12_Imag	S22_Real	S22_Imag
	1000000000	1.22E-01	-2.32E-02	-5.56E-01	-8.77E-01	0.00E+00	0.00E+00	0.00E+00	0.00E+00
	1050000000	5.26E-02	-2.24E-02	-3.75E-01	-9.65E-01	0.00E+00	0.00E+00	0.00E+00	0.00E+00
	1100000000	4.97E-02	-1.12E-02	-1.68E-01	-1.02E+00	0.00E+00	0.00E+00	0.00E+00	0.00E+00
	1150000000	3.00E-02	-4.67E-02	3.62E-02	-1.03E+00	0.00E+00	0.00E+00	0.00E+00	0.00E+00
	1200000000	-5.03E-02	-3.65E-02	2.43E-01	-9.89E-01	0.00E+00	0.00E+00	0.00E+00	0.00E+00
	1250000000	-7.79E-02	6.67E-02	4.49E-01	-9.10E-01	0.00E+00	0.00E+00	0.00E+00	0.00E+00
	1300000000	1.53E-02	1.35E-01	6.30E-01	-8.03E-01	0.00E+00	0.00E+00	0.00E+00	0.00E+00
	1350000000	1.01E-01	6.55E-02	7.71E-01	-6.55E-01	0.00E+00	0.00E+00	0.00E+00	0.00E+00
	1400000000	7.33E-02	4.97E-03	9.02E-01	-4.82E-01	0.00E+00	0.00E+00	0.00E+00	0.00E+00
	1450000000	1.78E-02	2.23E-02	9.74E-01	-3.01E-01	0.00E+00	0.00E+00	0.00E+00	0.00E+00
	1500000000	5.29E-02	6.39E-02	1.00E+00	-1.02E-01	0.00E+00	0.00E+00	0.00E+00	0.00E+00
	1550000000	9.55E-02	5.84E-03	9.91E-01	1.01E-01	0.00E+00	0.00E+00	0.00E+00	0.00E+00
	1600000000	1.28E-02	-5.67E-02	9.47E-01	2.91E-01	0.00E+00	0.00E+00	0.00E+00	0.00E+00
	1650000000	-9.31E-02	3.84E-02	8.58E-01	4.61E-01	0.00E+00	0.00E+00	0.00E+00	0.00E+00
	1700000000	-2.37E-02	1.97E-01	7.31E-01	6.05E-01	0.00E+00	0.00E+00	0.00E+00	0.00E+00
	1750000000	1.62E-01	1.97E-01	5.74E-01	7.36E-01	0.00E+00	0.00E+00	0.00E+00	0.00E+00
	1800000000	2.38E-01	4.09E-02	4.23E-01	8.45E-01	0.00E+00	0.00E+00	0.00E+00	0.00E+00
	1850000000	1.53E-01	-7.41E-02	2.69E-01	8.99E-01	0.00E+00	0.00E+00	0.00E+00	0.00E+00
	1900000000	6.26E-02	-5.66E-02	1.23E-01	9.13E-01	0.00E+00	0.00E+00	0.00E+00	0.00E+00
	1950000000	5.09E-02	-2.04E-02	7.80E-03	8.91E-01	0.00E+00	0.00E+00	0.00E+00	0.00E+00
	2000000000	7.50E-02	-1.89E-02	-4.86E-02	8.09E-01	0.00E+00	0.00E+00	0.00E+00	0.00E+00
	2050000000	6.20E-02	-1.90E-01	-3.82E-02	5.61E-01	0.00E+00	0.00E+00	0.00E+00	0.00E+00
	2100000000	-3.94E-01	-4.28E-02	-2.81E-01	2.00E-01	0.00E+00	0.00E+00	0.00E+00	0.00E+00
	2150000000	-1.94E-01	4.67E-01	-4.98E-01	6.50E-02	0.00E+00	0.00E+00	0.00E+00	0.00E+00
	2200000000	2.63E-01	4.84E-01	-6.01E-01	-5.24E-02	0.00E+00	0.00E+00	0.00E+00	0.00E+00
	2250000000	5.13E-01	1.81E-01	-6.37E-01	-1.63E-01	0.00E+00	0.00E+00	0.00E+00	0.00E+00
	2300000000	4.63E-01	-1.63E-01	-6.10E-01	-2.69E-01	0.00E+00	0.00E+00	0.00E+00	0.00E+00
	2350000000	2.12E-01	-3.48E-01	-5.41E-01	-3.78E-01	0.00E+00	0.00E+00	0.00E+00	0.00E+00
	2400000000	-7.70E-02	-3.16E-01	-4.56E-01	-4.73E-01	0.00E+00	0.00E+00	0.00E+00	0.00E+00
	2450000000	-2.41E-01	-8.35E-02	-3.68E-01	-5.32E-01	0.00E+00	0.00E+00	0.00E+00	0.00E+00
	2500000000	-1.26E-01	1.30E-01	-3.03E-01	-5.00E-01	0.00E+00	0.00E+00	0.00E+00	0.00E+00
	2550000000	-1.63E-01	1.37E-01	-3.06E-02	-3.41E-01	0.00E+00	0.00E+00	0.00E+00	0.00E+00
	2600000000	4.23E-02	3.74E-01	2.16E-01	-4.01E-01	0.00E+00	0.00E+00	0.00E+00	0.00E+00
	2650000000	3.36E-01	2.64E-01	3.57E-01	-3.81E-01	0.00E+00	0.00E+00	0.00E+00	0.00E+00
	2700000000	4.09E-01	-1.48E-02	4.86E-01	-3.03E-01	0.00E+00	0.00E+00	0.00E+00	0.00E+00
	2750000000	2.59E-01	-2.16E-01	5.93E-01	-1.90E-01	0.00E+00	0.00E+00	0.00E+00	0.00E+00
	2800000000	4.69E-02	-2.26E-01	6.79E-01	-6.47E-02	0.00E+00	0.00E+00	0.00E+00	0.00E+00
	2850000000	-6.97E-02	-9.91E-02	7.26E-01	5.12E-02	0.00E+00	0.00E+00	0.00E+00	0.00E+00
	2900000000	-5.16E-02	3.19E-02	7.09E-01	1.75E-01	0.00E+00	0.00E+00	0.00E+00	0.00E+00
	2950000000	1.24E-02	8.02E-02	6.35E-01	3.48E-01	0.00E+00	0.00E+00	0.00E+00	0.00E+00
	3000000000	1.05E-01	1.29E-01	5.91E-01	5.03E-01	0.00E+00	0.00E+00	0.00E+00	0.00E+00
	3050000000	2.18E-01	6.59E-02	4.94E-01	6.19E-01	0.00E+00	0.00E+00	0.00E+00	0.00E+00
	3100000000	2.33E-01	-6.38E-02	3.63E-01	7.27E-01	0.00E+00	0.00E+00	0.00E+00	0.00E+00
	3150000000	1.41E-01	-1.45E-01	2.34E-01	8.13E-01	0.00E+00	0.00E+00	0.00E+00	0.00E+00
	3200000000	4.34E-02	-1.13E-01	9.65E-02	8.39E-01	0.00E+00	0.00E+00	0.00E+00	0.00E+00
	3250000000	2.43E-02	-3.59E-02	-6.60E-02	8.28E-01	0.00E+00	0.00E+00	0.00E+00	0.00E+00
	3300000000	5.84E-02	8.33E-03	-2.27E-01	7.96E-01	0.00E+00	0.00E+00	0.00E+00	0.00E+00
	3350000000	9.00E-02	1.61E-02	-3.70E-01	7.32E-01	0.00E+00	0.00E+00	0.00E+00	0.00E+00
	3400000000	9.51E-02	3.07E-02	-4.85E-01	6.49E-01	0.00E+00	0.00E+00	0.00E+00	0.00E+00
	3450000000	1.84E-01	9.55E-02	-5.11E-01	5.05E-01	0.00E+00	0.00E+00	0.00E+00	0.00E+00
	3500000000	2.77E-01	-4.76E-03	-5.74E-01	2.77E-01	0.00E+00	0.00E+00	0.00E+00	0.00E+00
	3550000000	2.70E-01	-1.51E-01	-6.47E-01	3.11E-02	0.00E+00	0.00E+00	0.00E+00	0.00E+00
	3600000000	1.50E-01	-1.96E-01	-7.17E-01	-1.38E-01	0.00E+00	0.00E+00	0.00E+00	0.00E+00
	3650000000	7.71E-02	-1.73E-01	-7.08E-01	-2.99E-01	0.00E+00	0.00E+00	0.00E+00	0.00E+00
	3700000000	2.20E-02	-1.36E-01	-6.54E-01	-4.72E-01	0.00E+00	0.00E+00	0.00E+00	0.00E+00
	3750000000	-1.64E-02	-6.19E-02	-5.84E-01	-6.22E-01	0.00E+00	0.00E+00	0.00E+00	0.00E+00
	3800000000	1.59E-02	2.53E-02	-4.78E-01	-7.21E-01	0.00E+00	0.00E+00	0.00E+00	0.00E+00
	3850000000	8.25E-02	4.22E-02	-3.09E-01	-7.98E-01	0.00E+00	0.00E+00	0.00E+00	0.00E+00
	3900000000	1.01E-01	3.81E-02	-1.33E-01	-8.58E-01	0.00E+00	0.00E+00	0.00E+00	0.00E+00
	3950000000	1.38E-01	8.58E-02	3.36E-02	-8.57E-01	0.00E+00	0.00E+00	0.00E+00	0.00E+00
	4000000000	2.74E-01	8.17E-02	2.40E-01	-8.08E-01	0.00E+00	0.00E+00	0.00E+00	0.00E+00
	4050000000	3.80E-01	-8.13E-02	4.43E-01	-7.59E-01	0.00E+00	0.00E+00	0.00E+00	0.00E+00
	4100000000	3.06E-01	-2.96E-01	5.90E-01	-6.82E-01	0.00E+00	0.00E+00	0.00E+00	0.00E+00
	4150000000	8.73E-02	-3.77E-01	7.18E-01	-5.36E-01	0.00E+00	0.00E+00	0.00E+00	0.00E+00
	4200000000	-9.26E-02	-2.73E-01	8.49E-01	-3.80E-01	0.00E+00	0.00E+00	0.00E+00	0.00E+00
	4250000000	-1.35E-01	-1.34E-01	9.12E-01	-2.34E-01	0.00E+00	0.00E+00	0.00E+00	0.00E+00
	4300000000	-1.50E-01	-3.23E-02	9.14E-01	-5.05E-02	0.00E+00	0.00E+00	0.00E+00	0.00E+00
	4350000000	-1.23E-01	1.39E-01	8.98E-01	1.31E-01	0.00E+00	0.00E+00	0.00E+00	0.00E+00
	4400000000	9.38E-02	2.81E-01	8.20E-01	2.95E-01	0.00E+00	0.00E+00	0.00E+00	0.00E+00
	4450000000	3.81E-01	1.72E-01	6.92E-01	4.70E-01	0.00E+00	0.00E+00	0.00E+00	0.00E+00
	4500000000	4.69E-01	-1.21E-01	5.55E-01	6.33E-01	0.00E+00	0.00E+00	0.00E+00	0.00E+00
	4550000000	3.14E-01	-3.45E-01	3.85E-01	7.41E-01	0.00E+00	0.00E+00	0.00E+00	0.00E+00
	4600000000	1.09E-01	-3.53E-01	1.79E-01	8.30E-01	0.00E+00	0.00E+00	0.00E+00	0.00E+00
	4650000000	3.49E-02	-3.05E-01	-1.79E-02	8.70E-01	0.00E+00	0.00E+00	0.00E+00	0.00E+00
	4700000000	-6.76E-02	-2.39E-01	-2.44E-01	8.85E-01	0.00E+00	0.00E+00	0.00E+00	0.00E+00
	4750000000	-1.08E-01	-1.66E-01	-4.27E-01	8.19E-01	0.00E+00	0.00E+00	0.00E+00	0.00E+00
	4800000000	-1.32E-01	2.31E-04	-6.88E-01	7.33E-01	0.00E+00	0.00E+00	0.00E+00	0.00E+00
	4850000000	5.55E-02	1.35E-01	-9.24E-01	7.11E-01	0.00E+00	0.00E+00	0.00E+00	0.00E+00
	4900000000	2.51E-01	6.54E-03	-1.03E+00	6.72E-01	0.00E+00	0.00E+00	0.00E+00	0.00E+00
	4950000000	1.96E-01	-1.89E-01	-1.04E+00	5.45E-01	0.00E+00	0.00E+00	0.00E+00	0.00E+00
	5000000000	1.88E-02	-1.65E-01	-1.06E+00	3.54E-01	0.00E+00	0.00E+00	0.00E+00	0.00E+00
	5050000000	4.95E-02	9.72E-03	-1.08E+00	6.78E-02	0.00E+00	0.00E+00	0.00E+00	0.00E+00
	5100000000	2.49E-01	-1.91E-02	-1.08E+00	-2.93E-02	0.00E+00	0.00E+00	0.00E+00	0.00E+00
	5150000000	2.71E-01	-2.41E-01	-9.92E-01	-1.96E-01	0.00E+00	0.00E+00	0.00E+00	0.00E+00
	5200000000	7.08E-02	-3.47E-01	-8.73E-01	-3.71E-01	0.00E+00	0.00E+00	0.00E+00	0.00E+00
	5250000000	-7.72E-02	-2.32E-01	-7.44E-01	-5.44E-01	0.00E+00	0.00E+00	0.00E+00	0.00E+00
	5300000000	-3.68E-02	-1.45E-01	-6.03E-01	-6.83E-01	0.00E+00	0.00E+00	0.00E+00	0.00E+00
	5350000000	-5.34E-02	-1.86E-01	-4.54E-01	-7.41E-01	0.00E+00	0.00E+00	0.00E+00	0.00E+00
	5400000000	-1.59E-01	-1.12E-01	-2.41E-01	-7.96E-01	0.00E+00	0.00E+00	0.00E+00	0.00E+00
	5450000000	-1.00E-01	7.08E-02	-5.90E-02	-8.44E-01	0.00E+00	0.00E+00	0.00E+00	0.00E+00
	5500000000	1.22E-01	6.61E-02	7.05E-02	-8.06E-01	0.00E+00	0.00E+00	0.00E+00	0.00E+00
	5550000000	1.81E-01	-1.29E-01	2.39E-01	-6.92E-01	0.00E+00	0.00E+00	0.00E+00	0.00E+00
	5600000000	4.44E-02	-2.02E-01	4.01E-01	-5.58E-01	0.00E+00	0.00E+00	0.00E+00	0.00E+00
	5650000000	3.73E-02	-1.36E-01	5.53E-01	-4.09E-01	0.00E+00	0.00E+00	0.00E+00	0.00E+00
	5700000000	8.75E-02	-1.43E-01	6.61E-01	-2.73E-01	0.00E+00	0.00E+00	0.00E+00	0.00E+00
	5750000000	1.25E-01	-2.29E-01	7.12E-01	-1.11E-01	0.00E+00	0.00E+00	0.00E+00	0.00E+00
	5800000000	5.77E-02	-3.24E-01	7.33E-01	5.47E-02	0.00E+00	0.00E+00	0.00E+00	0.00E+00
	5850000000	-6.04E-02	-3.20E-01	7.01E-01	2.22E-01	0.00E+00	0.00E+00	0.00E+00	0.00E+00
	5900000000	-8.33E-02	-2.24E-01	6.57E-01	3.92E-01	0.00E+00	0.00E+00	0.00E+00	0.00E+00
	5950000000	-1.34E-02	-2.33E-01	5.93E-01	5.00E-01	0.00E+00	0.00E+00	0.00E+00	0.00E+00
	6000000000	-1.22E-01	-2.75E-01	7.46E-01	4.64E-02	0.00E+00	0.00E+00	0.00E+00	0.00E+00
