! NanoVNA-App
! Date: 2024-03-20 19:40:15
! Start: 1GHz Stop: 6GHz Points: 101
! S-Parameter data: F S11 S21 S12 S22
# Hz S RI R 50
!     Frequency           S11_Real           S11_Imag           S21_Real           S21_Imag           S12_Real           S12_Imag           S22_Real           S22_Imag
     1000000000    1.242314130e-01   -2.436656132e-02   -5.514019728e-01   -8.800098300e-01    0.000000000e+00    0.000000000e+00    0.000000000e+00    0.000000000e+00
     1050000000    5.387151986e-02   -2.386427484e-02   -3.697856665e-01   -9.666398168e-01    0.000000000e+00    0.000000000e+00    0.000000000e+00    0.000000000e+00
     1100000000    5.045546964e-02   -1.047599316e-02   -1.614823192e-01   -1.019046426e+00    0.000000000e+00    0.000000000e+00    0.000000000e+00    0.000000000e+00
     1150000000    3.226025775e-02   -4.495384172e-02    4.231092334e-02   -1.031793356e+00    0.000000000e+00    0.000000000e+00    0.000000000e+00    0.000000000e+00
     1200000000   -4.701650515e-02   -3.576888144e-02    2.488915920e-01   -9.876922369e-01    0.000000000e+00    0.000000000e+00    0.000000000e+00    0.000000000e+00
     1250000000   -7.539851218e-02    6.684897095e-02    4.531854093e-01   -9.066187143e-01    0.000000000e+00    0.000000000e+00    0.000000000e+00    0.000000000e+00
     1300000000    1.730054617e-02    1.362525076e-01    6.339008212e-01   -7.969436049e-01    0.000000000e+00    0.000000000e+00    0.000000000e+00    0.000000000e+00
     1350000000    1.037381515e-01    6.673689187e-02    7.740764618e-01   -6.479891539e-01    0.000000000e+00    0.000000000e+00    0.000000000e+00    0.000000000e+00
     1400000000    7.746279240e-02    4.845927935e-03    9.024962783e-01   -4.775507450e-01    0.000000000e+00    0.000000000e+00    0.000000000e+00    0.000000000e+00
     1450000000    2.015475929e-02    2.026092075e-02    9.740428925e-01   -2.949084044e-01    0.000000000e+00    0.000000000e+00    0.000000000e+00    0.000000000e+00
     1500000000    5.216077715e-02    6.320673972e-02    1.001083374e+00   -9.748233110e-02    0.000000000e+00    0.000000000e+00    0.000000000e+00    0.000000000e+00
     1550000000    9.409102798e-02    7.748134434e-03    9.887623191e-01    1.070442125e-01    0.000000000e+00    0.000000000e+00    0.000000000e+00    0.000000000e+00
     1600000000    1.241998374e-02   -5.283759162e-02    9.395391941e-01    2.967925072e-01    0.000000000e+00    0.000000000e+00    0.000000000e+00    0.000000000e+00
     1650000000   -9.144825488e-02    4.335203394e-02    8.527427912e-01    4.643480778e-01    0.000000000e+00    0.000000000e+00    0.000000000e+00    0.000000000e+00
     1700000000   -1.974237710e-02    2.012852281e-01    7.238136530e-01    6.064826846e-01    0.000000000e+00    0.000000000e+00    0.000000000e+00    0.000000000e+00
     1750000000    1.675012112e-01    1.987692416e-01    5.670793056e-01    7.368268371e-01    0.000000000e+00    0.000000000e+00    0.000000000e+00    0.000000000e+00
     1800000000    2.435699552e-01    3.844920918e-02    4.153074920e-01    8.446071148e-01    0.000000000e+00    0.000000000e+00    0.000000000e+00    0.000000000e+00
     1850000000    1.543660164e-01   -7.904211432e-02    2.627866566e-01    8.971852064e-01    0.000000000e+00    0.000000000e+00    0.000000000e+00    0.000000000e+00
     1900000000    5.930191651e-02   -6.061860546e-02    1.181435138e-01    9.117820263e-01    0.000000000e+00    0.000000000e+00    0.000000000e+00    0.000000000e+00
     1950000000    4.467443004e-02   -2.085602842e-02    1.949754078e-03    8.852743506e-01    0.000000000e+00    0.000000000e+00    0.000000000e+00    0.000000000e+00
     2000000000    6.600379199e-02   -1.432904322e-02   -5.265655369e-02    8.054857850e-01    0.000000000e+00    0.000000000e+00    0.000000000e+00    0.000000000e+00
     2050000000    6.027296558e-02   -1.735899597e-01   -3.565839678e-02    5.703508854e-01    0.000000000e+00    0.000000000e+00    0.000000000e+00    0.000000000e+00
     2100000000   -3.823902309e-01   -3.710094467e-02   -2.642027140e-01    1.965213418e-01    0.000000000e+00    0.000000000e+00    0.000000000e+00    0.000000000e+00
     2150000000   -1.830308884e-01    4.687806666e-01   -4.816810787e-01    5.602176860e-02    0.000000000e+00    0.000000000e+00    0.000000000e+00    0.000000000e+00
     2200000000    2.739706635e-01    4.776259959e-01   -5.828571916e-01   -5.971798301e-02    0.000000000e+00    0.000000000e+00    0.000000000e+00    0.000000000e+00
     2250000000    5.155943632e-01    1.673304886e-01   -6.148236394e-01   -1.706960648e-01    0.000000000e+00    0.000000000e+00    0.000000000e+00    0.000000000e+00
     2300000000    4.531922340e-01   -1.770117879e-01   -5.861697793e-01   -2.779887319e-01    0.000000000e+00    0.000000000e+00    0.000000000e+00    0.000000000e+00
     2350000000    1.918603480e-01   -3.533931077e-01   -5.152976513e-01   -3.854713738e-01    0.000000000e+00    0.000000000e+00    0.000000000e+00    0.000000000e+00
     2400000000   -9.461336583e-02   -2.962833643e-01   -4.265007377e-01   -4.781387448e-01    0.000000000e+00    0.000000000e+00    0.000000000e+00    0.000000000e+00
     2450000000   -2.341094464e-01   -5.513058975e-02   -3.368669748e-01   -5.347728729e-01    0.000000000e+00    0.000000000e+00    0.000000000e+00    0.000000000e+00
     2500000000   -1.023470163e-01    1.437579244e-01   -2.670451105e-01   -5.051223040e-01    0.000000000e+00    0.000000000e+00    0.000000000e+00    0.000000000e+00
     2550000000   -1.331907362e-01    1.152591929e-01   -7.216090802e-03   -3.303620517e-01    0.000000000e+00    0.000000000e+00    0.000000000e+00    0.000000000e+00
     2600000000    3.838425130e-02    3.529756367e-01    2.587721944e-01   -3.882068396e-01    0.000000000e+00    0.000000000e+00    0.000000000e+00    0.000000000e+00
     2650000000    3.238969445e-01    2.534382343e-01    4.032517970e-01   -3.738299310e-01    0.000000000e+00    0.000000000e+00    0.000000000e+00    0.000000000e+00
     2700000000    3.935141265e-01   -1.455090661e-02    5.247623920e-01   -2.942963839e-01    0.000000000e+00    0.000000000e+00    0.000000000e+00    0.000000000e+00
     2750000000    2.418580651e-01   -2.054428905e-01    6.247401834e-01   -1.840884387e-01    0.000000000e+00    0.000000000e+00    0.000000000e+00    0.000000000e+00
     2800000000    3.900603205e-02   -2.042380422e-01    7.083421350e-01   -6.348751485e-02    0.000000000e+00    0.000000000e+00    0.000000000e+00    0.000000000e+00
     2850000000   -5.297124386e-02   -8.496540785e-02    7.487498522e-01    6.327381730e-02    0.000000000e+00    0.000000000e+00    0.000000000e+00    0.000000000e+00
     2900000000   -3.225776926e-02    2.781564742e-02    7.262661457e-01    1.904902011e-01    0.000000000e+00    0.000000000e+00    0.000000000e+00    0.000000000e+00
     2950000000    1.890628599e-02    6.468307227e-02    6.465122104e-01    3.649480045e-01    0.000000000e+00    0.000000000e+00    0.000000000e+00    0.000000000e+00
     3000000000    9.874989092e-02    1.173771471e-01    6.001234055e-01    5.205336809e-01    0.000000000e+00    0.000000000e+00    0.000000000e+00    0.000000000e+00
     3050000000    2.079300880e-01    6.236423180e-02    4.966600835e-01    6.341297626e-01    0.000000000e+00    0.000000000e+00    0.000000000e+00    0.000000000e+00
     3100000000    2.238278538e-01   -6.008791551e-02    3.577253520e-01    7.431451082e-01    0.000000000e+00    0.000000000e+00    0.000000000e+00    0.000000000e+00
     3150000000    1.352428049e-01   -1.363905668e-01    2.253222764e-01    8.277765512e-01    0.000000000e+00    0.000000000e+00    0.000000000e+00    0.000000000e+00
     3200000000    4.389514402e-02   -1.032885164e-01    8.505523950e-02    8.525298238e-01    0.000000000e+00    0.000000000e+00    0.000000000e+00    0.000000000e+00
     3250000000    3.090483695e-02   -2.943287976e-02   -8.415810764e-02    8.405875564e-01    0.000000000e+00    0.000000000e+00    0.000000000e+00    0.000000000e+00
     3300000000    6.551247090e-02    6.887624506e-03   -2.434299141e-01    8.065478802e-01    0.000000000e+00    0.000000000e+00    0.000000000e+00    0.000000000e+00
     3350000000    9.223605692e-02    1.128378138e-02   -3.884911537e-01    7.381236553e-01    0.000000000e+00    0.000000000e+00    0.000000000e+00    0.000000000e+00
     3400000000    9.482581168e-02    2.706097439e-02   -5.013648272e-01    6.529384851e-01    0.000000000e+00    0.000000000e+00    0.000000000e+00    0.000000000e+00
     3450000000    1.828151345e-01    9.249806404e-02   -5.271656513e-01    5.064715743e-01    0.000000000e+00    0.000000000e+00    0.000000000e+00    0.000000000e+00
     3500000000    2.742568851e-01   -1.274353452e-02   -5.892135501e-01    2.717433274e-01    0.000000000e+00    0.000000000e+00    0.000000000e+00    0.000000000e+00
     3550000000    2.581949830e-01   -1.567700952e-01   -6.651114225e-01    1.991748251e-02    0.000000000e+00    0.000000000e+00    0.000000000e+00    0.000000000e+00
     3600000000    1.381996423e-01   -1.894946098e-01   -7.369782329e-01   -1.522309631e-01    0.000000000e+00    0.000000000e+00    0.000000000e+00    0.000000000e+00
     3650000000    7.696039230e-02   -1.597572714e-01   -7.255482674e-01   -3.094967008e-01    0.000000000e+00    0.000000000e+00    0.000000000e+00    0.000000000e+00
     3700000000    3.094477579e-02   -1.304675043e-01   -6.679485440e-01   -4.827084243e-01    0.000000000e+00    0.000000000e+00    0.000000000e+00    0.000000000e+00
     3750000000   -6.773492321e-03   -6.484555453e-02   -5.937801600e-01   -6.347344518e-01    0.000000000e+00    0.000000000e+00    0.000000000e+00    0.000000000e+00
     3800000000    2.070783451e-02    1.572981663e-02   -4.814847708e-01   -7.341330647e-01    0.000000000e+00    0.000000000e+00    0.000000000e+00    0.000000000e+00
     3850000000    8.136475086e-02    3.168812767e-02   -3.123674691e-01   -8.101436496e-01    0.000000000e+00    0.000000000e+00    0.000000000e+00    0.000000000e+00
     3900000000    9.225117415e-02    3.146757931e-02   -1.342914402e-01   -8.703683615e-01    0.000000000e+00    0.000000000e+00    0.000000000e+00    0.000000000e+00
     3950000000    1.295273900e-01    8.881556243e-02    3.242814541e-02   -8.671967387e-01    0.000000000e+00    0.000000000e+00    0.000000000e+00    0.000000000e+00
     4000000000    2.727557421e-01    8.926541358e-02    2.406854928e-01   -8.149589896e-01    0.000000000e+00    0.000000000e+00    0.000000000e+00    0.000000000e+00
     4050000000    3.854188919e-01   -7.639489323e-02    4.467400610e-01   -7.629166842e-01    0.000000000e+00    0.000000000e+00    0.000000000e+00    0.000000000e+00
     4100000000    3.126208484e-01   -2.953115404e-01    5.923977494e-01   -6.837989092e-01    0.000000000e+00    0.000000000e+00    0.000000000e+00    0.000000000e+00
     4150000000    9.086725861e-02   -3.800961971e-01    7.198020816e-01   -5.341380239e-01    0.000000000e+00    0.000000000e+00    0.000000000e+00    0.000000000e+00
     4200000000   -9.197097272e-02   -2.757346332e-01    8.496323824e-01   -3.785306215e-01    0.000000000e+00    0.000000000e+00    0.000000000e+00    0.000000000e+00
     4250000000   -1.367384344e-01   -1.359217167e-01    9.141545892e-01   -2.314964533e-01    0.000000000e+00    0.000000000e+00    0.000000000e+00    0.000000000e+00
     4300000000   -1.530663073e-01   -3.053456731e-02    9.149655104e-01   -4.283807799e-02    0.000000000e+00    0.000000000e+00    0.000000000e+00    0.000000000e+00
     4350000000   -1.238266081e-01    1.434631348e-01    8.975398540e-01    1.390986741e-01    0.000000000e+00    0.000000000e+00    0.000000000e+00    0.000000000e+00
     4400000000    9.673837572e-02    2.860332727e-01    8.192636967e-01    3.050688803e-01    0.000000000e+00    0.000000000e+00    0.000000000e+00    0.000000000e+00
     4450000000    3.848027885e-01    1.751230806e-01    6.872643828e-01    4.825277627e-01    0.000000000e+00    0.000000000e+00    0.000000000e+00    0.000000000e+00
     4500000000    4.718849659e-01   -1.202229932e-01    5.484216809e-01    6.429309249e-01    0.000000000e+00    0.000000000e+00    0.000000000e+00    0.000000000e+00
     4550000000    3.136807680e-01   -3.460157514e-01    3.784972727e-01    7.503263950e-01    0.000000000e+00    0.000000000e+00    0.000000000e+00    0.000000000e+00
     4600000000    1.047031134e-01   -3.519192338e-01    1.739544421e-01    8.387147784e-01    0.000000000e+00    0.000000000e+00    0.000000000e+00    0.000000000e+00
     4650000000    3.375895694e-02   -3.005065918e-01   -2.250931226e-02    8.777508736e-01    0.000000000e+00    0.000000000e+00    0.000000000e+00    0.000000000e+00
     4700000000   -7.172115147e-02   -2.387904227e-01   -2.573876977e-01    8.851175904e-01    0.000000000e+00    0.000000000e+00    0.000000000e+00    0.000000000e+00
     4750000000   -1.124991998e-01   -1.613471061e-01   -4.393788576e-01    8.205745220e-01    0.000000000e+00    0.000000000e+00    0.000000000e+00    0.000000000e+00
     4800000000   -1.347088367e-01    6.548556034e-03   -7.016677856e-01    7.313231826e-01    0.000000000e+00    0.000000000e+00    0.000000000e+00    0.000000000e+00
     4850000000    5.455344170e-02    1.409929991e-01   -9.402463436e-01    7.042406201e-01    0.000000000e+00    0.000000000e+00    0.000000000e+00    0.000000000e+00
     4900000000    2.506083548e-01    1.142945513e-02   -1.046146154e+00    6.671116352e-01    0.000000000e+00    0.000000000e+00    0.000000000e+00    0.000000000e+00
     4950000000    1.955173910e-01   -1.857651770e-01   -1.055950165e+00    5.350616574e-01    0.000000000e+00    0.000000000e+00    0.000000000e+00    0.000000000e+00
     5000000000    1.888560317e-02   -1.631295979e-01   -1.073948026e+00    3.427881300e-01    0.000000000e+00    0.000000000e+00    0.000000000e+00    0.000000000e+00
     5050000000    4.763509706e-02    9.856844321e-03   -1.089626789e+00    4.770313203e-02    0.000000000e+00    0.000000000e+00    0.000000000e+00    0.000000000e+00
     5100000000    2.454257160e-01   -1.882584579e-02   -1.088251710e+00   -4.717270285e-02    0.000000000e+00    0.000000000e+00    0.000000000e+00    0.000000000e+00
     5150000000    2.658466399e-01   -2.407764792e-01   -9.958537817e-01   -2.155379355e-01    0.000000000e+00    0.000000000e+00    0.000000000e+00    0.000000000e+00
     5200000000    6.469716877e-02   -3.446534276e-01   -8.727052808e-01   -3.889811635e-01    0.000000000e+00    0.000000000e+00    0.000000000e+00    0.000000000e+00
     5250000000   -8.390060812e-02   -2.277659625e-01   -7.403728366e-01   -5.581551194e-01    0.000000000e+00    0.000000000e+00    0.000000000e+00    0.000000000e+00
     5300000000   -3.994313255e-02   -1.403990984e-01   -5.911107063e-01   -7.035163641e-01    0.000000000e+00    0.000000000e+00    0.000000000e+00    0.000000000e+00
     5350000000   -5.654526874e-02   -1.827314943e-01   -4.427417815e-01   -7.582956553e-01    0.000000000e+00    0.000000000e+00    0.000000000e+00    0.000000000e+00
     5400000000   -1.630858332e-01   -1.088431552e-01   -2.292529643e-01   -8.066413999e-01    0.000000000e+00    0.000000000e+00    0.000000000e+00    0.000000000e+00
     5450000000   -1.049421877e-01    7.472022623e-02   -4.755391181e-02   -8.529631495e-01    0.000000000e+00    0.000000000e+00    0.000000000e+00    0.000000000e+00
     5500000000    1.209610254e-01    7.178068906e-02    8.205388486e-02   -8.123110533e-01    0.000000000e+00    0.000000000e+00    0.000000000e+00    0.000000000e+00
     5550000000    1.827120036e-01   -1.296495944e-01    2.548318207e-01   -6.914738417e-01    0.000000000e+00    0.000000000e+00    0.000000000e+00    0.000000000e+00
     5600000000    3.760047629e-02   -2.064581066e-01    4.152032435e-01   -5.547380447e-01    0.000000000e+00    0.000000000e+00    0.000000000e+00    0.000000000e+00
     5650000000    2.488278039e-02   -1.282020658e-01    5.624251962e-01   -4.023806751e-01    0.000000000e+00    0.000000000e+00    0.000000000e+00    0.000000000e+00
     5700000000    8.392412961e-02   -1.367347389e-01    6.730918884e-01   -2.605917156e-01    0.000000000e+00    0.000000000e+00    0.000000000e+00    0.000000000e+00
     5750000000    1.216297075e-01   -2.249609381e-01    7.220851183e-01   -9.644497931e-02    0.000000000e+00    0.000000000e+00    0.000000000e+00    0.000000000e+00
     5800000000    5.203573406e-02   -3.206521571e-01    7.393473387e-01    6.988634914e-02    0.000000000e+00    0.000000000e+00    0.000000000e+00    0.000000000e+00
     5850000000   -6.718923897e-02   -3.178621829e-01    7.036855817e-01    2.394932359e-01    0.000000000e+00    0.000000000e+00    0.000000000e+00    0.000000000e+00
     5900000000   -9.232603014e-02   -2.237064242e-01    6.577161551e-01    4.059876502e-01    0.000000000e+00    0.000000000e+00    0.000000000e+00    0.000000000e+00
     5950000000   -2.686421014e-02   -2.299824059e-01    5.913931727e-01    5.186598897e-01    0.000000000e+00    0.000000000e+00    0.000000000e+00    0.000000000e+00
     6000000000   -1.340668052e-01   -2.651138008e-01    7.556135058e-01    6.027606502e-02    0.000000000e+00    0.000000000e+00    0.000000000e+00    0.000000000e+00
