! NanoVNA-App									
! Date: 2024-03-20 20:38:35									
! Start: 1GHz Stop: 6GHz Points: 101									
! S-Parameter data: F S11 S21 S12 S22									
# Hz S RI R 50									
!	Frequency	S11_Real	S11_Imag	S21_Real	S21_Imag	S12_Real	S12_Imag	S22_Real	S22_Imag
	1000000000	1.23E-01	-2.39E-02	-5.54E-01	-8.79E-01	0.00E+00	0.00E+00	0.00E+00	0.00E+00
	1050000000	5.33E-02	-2.34E-02	-3.72E-01	-9.65E-01	0.00E+00	0.00E+00	0.00E+00	0.00E+00
	1100000000	5.02E-02	-1.07E-02	-1.64E-01	-1.02E+00	0.00E+00	0.00E+00	0.00E+00	0.00E+00
	1150000000	3.14E-02	-4.57E-02	3.93E-02	-1.03E+00	0.00E+00	0.00E+00	0.00E+00	0.00E+00
	1200000000	-4.82E-02	-3.62E-02	2.47E-01	-9.88E-01	0.00E+00	0.00E+00	0.00E+00	0.00E+00
	1250000000	-7.65E-02	6.65E-02	4.52E-01	-9.08E-01	0.00E+00	0.00E+00	0.00E+00	0.00E+00
	1300000000	1.63E-02	1.36E-01	6.33E-01	-8.00E-01	0.00E+00	0.00E+00	0.00E+00	0.00E+00
	1350000000	1.03E-01	6.63E-02	7.73E-01	-6.52E-01	0.00E+00	0.00E+00	0.00E+00	0.00E+00
	1400000000	7.59E-02	5.11E-03	9.05E-01	-4.79E-01	0.00E+00	0.00E+00	0.00E+00	0.00E+00
	1450000000	1.92E-02	2.12E-02	9.75E-01	-2.96E-01	0.00E+00	0.00E+00	0.00E+00	0.00E+00
	1500000000	5.25E-02	6.36E-02	1.00E+00	-9.96E-02	0.00E+00	0.00E+00	0.00E+00	0.00E+00
	1550000000	9.49E-02	7.12E-03	9.90E-01	1.04E-01	0.00E+00	0.00E+00	0.00E+00	0.00E+00
	1600000000	1.29E-02	-5.43E-02	9.41E-01	2.96E-01	0.00E+00	0.00E+00	0.00E+00	0.00E+00
	1650000000	-9.16E-02	4.13E-02	8.55E-01	4.64E-01	0.00E+00	0.00E+00	0.00E+00	0.00E+00
	1700000000	-2.11E-02	1.99E-01	7.27E-01	6.06E-01	0.00E+00	0.00E+00	0.00E+00	0.00E+00
	1750000000	1.66E-01	1.98E-01	5.71E-01	7.38E-01	0.00E+00	0.00E+00	0.00E+00	0.00E+00
	1800000000	2.41E-01	3.94E-02	4.18E-01	8.45E-01	0.00E+00	0.00E+00	0.00E+00	0.00E+00
	1850000000	1.53E-01	-7.68E-02	2.65E-01	8.99E-01	0.00E+00	0.00E+00	0.00E+00	0.00E+00
	1900000000	6.00E-02	-5.79E-02	1.22E-01	9.11E-01	0.00E+00	0.00E+00	0.00E+00	0.00E+00
	1950000000	4.81E-02	-1.86E-02	3.66E-03	8.89E-01	0.00E+00	0.00E+00	0.00E+00	0.00E+00
	2000000000	7.29E-02	-1.63E-02	-5.17E-02	8.07E-01	0.00E+00	0.00E+00	0.00E+00	0.00E+00
	2050000000	6.13E-02	-1.85E-01	-4.10E-02	5.62E-01	0.00E+00	0.00E+00	0.00E+00	0.00E+00
	2100000000	-3.93E-01	-3.67E-02	-2.74E-01	2.00E-01	0.00E+00	0.00E+00	0.00E+00	0.00E+00
	2150000000	-1.87E-01	4.68E-01	-4.93E-01	6.17E-02	0.00E+00	0.00E+00	0.00E+00	0.00E+00
	2200000000	2.68E-01	4.81E-01	-5.94E-01	-5.60E-02	0.00E+00	0.00E+00	0.00E+00	0.00E+00
	2250000000	5.14E-01	1.74E-01	-6.28E-01	-1.67E-01	0.00E+00	0.00E+00	0.00E+00	0.00E+00
	2300000000	4.58E-01	-1.70E-01	-6.00E-01	-2.73E-01	0.00E+00	0.00E+00	0.00E+00	0.00E+00
	2350000000	2.02E-01	-3.52E-01	-5.31E-01	-3.81E-01	0.00E+00	0.00E+00	0.00E+00	0.00E+00
	2400000000	-8.57E-02	-3.07E-01	-4.43E-01	-4.75E-01	0.00E+00	0.00E+00	0.00E+00	0.00E+00
	2450000000	-2.38E-01	-7.06E-02	-3.53E-01	-5.33E-01	0.00E+00	0.00E+00	0.00E+00	0.00E+00
	2500000000	-1.17E-01	1.38E-01	-2.86E-01	-5.02E-01	0.00E+00	0.00E+00	0.00E+00	0.00E+00
	2550000000	-1.47E-01	1.31E-01	-2.29E-02	-3.38E-01	0.00E+00	0.00E+00	0.00E+00	0.00E+00
	2600000000	4.44E-02	3.64E-01	2.31E-01	-3.93E-01	0.00E+00	0.00E+00	0.00E+00	0.00E+00
	2650000000	3.31E-01	2.55E-01	3.75E-01	-3.74E-01	0.00E+00	0.00E+00	0.00E+00	0.00E+00
	2700000000	3.99E-01	-1.82E-02	5.00E-01	-2.96E-01	0.00E+00	0.00E+00	0.00E+00	0.00E+00
	2750000000	2.48E-01	-2.12E-01	6.05E-01	-1.84E-01	0.00E+00	0.00E+00	0.00E+00	0.00E+00
	2800000000	4.01E-02	-2.17E-01	6.94E-01	-6.14E-02	0.00E+00	0.00E+00	0.00E+00	0.00E+00
	2850000000	-6.15E-02	-9.00E-02	7.34E-01	6.08E-02	0.00E+00	0.00E+00	0.00E+00	0.00E+00
	2900000000	-4.12E-02	3.17E-02	7.14E-01	1.87E-01	0.00E+00	0.00E+00	0.00E+00	0.00E+00
	2950000000	1.68E-02	7.28E-02	6.35E-01	3.57E-01	0.00E+00	0.00E+00	0.00E+00	0.00E+00
	3000000000	1.03E-01	1.22E-01	5.94E-01	5.16E-01	0.00E+00	0.00E+00	0.00E+00	0.00E+00
	3050000000	2.14E-01	6.25E-02	4.93E-01	6.29E-01	0.00E+00	0.00E+00	0.00E+00	0.00E+00
	3100000000	2.28E-01	-6.37E-02	3.56E-01	7.39E-01	0.00E+00	0.00E+00	0.00E+00	0.00E+00
	3150000000	1.36E-01	-1.42E-01	2.28E-01	8.22E-01	0.00E+00	0.00E+00	0.00E+00	0.00E+00
	3200000000	4.12E-02	-1.08E-01	8.83E-02	8.47E-01	0.00E+00	0.00E+00	0.00E+00	0.00E+00
	3250000000	2.71E-02	-3.06E-02	-7.64E-02	8.36E-01	0.00E+00	0.00E+00	0.00E+00	0.00E+00
	3300000000	6.38E-02	9.44E-03	-2.40E-01	8.02E-01	0.00E+00	0.00E+00	0.00E+00	0.00E+00
	3350000000	9.32E-02	1.33E-02	-3.83E-01	7.35E-01	0.00E+00	0.00E+00	0.00E+00	0.00E+00
	3400000000	9.58E-02	2.74E-02	-4.95E-01	6.52E-01	0.00E+00	0.00E+00	0.00E+00	0.00E+00
	3450000000	1.85E-01	9.30E-02	-5.17E-01	5.07E-01	0.00E+00	0.00E+00	0.00E+00	0.00E+00
	3500000000	2.76E-01	-1.07E-02	-5.82E-01	2.71E-01	0.00E+00	0.00E+00	0.00E+00	0.00E+00
	3550000000	2.61E-01	-1.58E-01	-6.58E-01	1.90E-02	0.00E+00	0.00E+00	0.00E+00	0.00E+00
	3600000000	1.39E-01	-1.92E-01	-7.33E-01	-1.50E-01	0.00E+00	0.00E+00	0.00E+00	0.00E+00
	3650000000	7.64E-02	-1.61E-01	-7.23E-01	-3.06E-01	0.00E+00	0.00E+00	0.00E+00	0.00E+00
	3700000000	3.05E-02	-1.30E-01	-6.65E-01	-4.81E-01	0.00E+00	0.00E+00	0.00E+00	0.00E+00
	3750000000	-6.94E-03	-6.48E-02	-5.94E-01	-6.31E-01	0.00E+00	0.00E+00	0.00E+00	0.00E+00
	3800000000	1.99E-02	1.63E-02	-4.81E-01	-7.31E-01	0.00E+00	0.00E+00	0.00E+00	0.00E+00
	3850000000	8.11E-02	3.38E-02	-3.16E-01	-8.07E-01	0.00E+00	0.00E+00	0.00E+00	0.00E+00
	3900000000	9.29E-02	3.39E-02	-1.37E-01	-8.67E-01	0.00E+00	0.00E+00	0.00E+00	0.00E+00
	3950000000	1.32E-01	9.03E-02	2.93E-02	-8.64E-01	0.00E+00	0.00E+00	0.00E+00	0.00E+00
	4000000000	2.74E-01	8.78E-02	2.36E-01	-8.13E-01	0.00E+00	0.00E+00	0.00E+00	0.00E+00
	4050000000	3.85E-01	-7.84E-02	4.41E-01	-7.62E-01	0.00E+00	0.00E+00	0.00E+00	0.00E+00
	4100000000	3.11E-01	-2.96E-01	5.90E-01	-6.83E-01	0.00E+00	0.00E+00	0.00E+00	0.00E+00
	4150000000	8.98E-02	-3.80E-01	7.18E-01	-5.34E-01	0.00E+00	0.00E+00	0.00E+00	0.00E+00
	4200000000	-9.23E-02	-2.76E-01	8.49E-01	-3.79E-01	0.00E+00	0.00E+00	0.00E+00	0.00E+00
	4250000000	-1.37E-01	-1.35E-01	9.11E-01	-2.37E-01	0.00E+00	0.00E+00	0.00E+00	0.00E+00
	4300000000	-1.53E-01	-3.05E-02	9.13E-01	-4.62E-02	0.00E+00	0.00E+00	0.00E+00	0.00E+00
	4350000000	-1.24E-01	1.42E-01	8.96E-01	1.39E-01	0.00E+00	0.00E+00	0.00E+00	0.00E+00
	4400000000	9.46E-02	2.84E-01	8.18E-01	3.02E-01	0.00E+00	0.00E+00	0.00E+00	0.00E+00
	4450000000	3.83E-01	1.75E-01	6.89E-01	4.76E-01	0.00E+00	0.00E+00	0.00E+00	0.00E+00
	4500000000	4.71E-01	-1.19E-01	5.51E-01	6.37E-01	0.00E+00	0.00E+00	0.00E+00	0.00E+00
	4550000000	3.16E-01	-3.45E-01	3.80E-01	7.46E-01	0.00E+00	0.00E+00	0.00E+00	0.00E+00
	4600000000	1.07E-01	-3.55E-01	1.77E-01	8.34E-01	0.00E+00	0.00E+00	0.00E+00	0.00E+00
	4650000000	3.10E-02	-3.03E-01	-1.76E-02	8.74E-01	0.00E+00	0.00E+00	0.00E+00	0.00E+00
	4700000000	-7.15E-02	-2.39E-01	-2.54E-01	8.84E-01	0.00E+00	0.00E+00	0.00E+00	0.00E+00
	4750000000	-1.12E-01	-1.61E-01	-4.36E-01	8.19E-01	0.00E+00	0.00E+00	0.00E+00	0.00E+00
	4800000000	-1.35E-01	5.37E-03	-6.96E-01	7.32E-01	0.00E+00	0.00E+00	0.00E+00	0.00E+00
	4850000000	5.53E-02	1.41E-01	-9.34E-01	7.08E-01	0.00E+00	0.00E+00	0.00E+00	0.00E+00
	4900000000	2.53E-01	1.08E-02	-1.05E+00	6.65E-01	0.00E+00	0.00E+00	0.00E+00	0.00E+00
	4950000000	1.99E-01	-1.89E-01	-1.05E+00	5.39E-01	0.00E+00	0.00E+00	0.00E+00	0.00E+00
	5000000000	1.88E-02	-1.67E-01	-1.07E+00	3.46E-01	0.00E+00	0.00E+00	0.00E+00	0.00E+00
	5050000000	4.58E-02	8.67E-03	-1.09E+00	5.84E-02	0.00E+00	0.00E+00	0.00E+00	0.00E+00
	5100000000	2.45E-01	-1.77E-02	-1.09E+00	-4.06E-02	0.00E+00	0.00E+00	0.00E+00	0.00E+00
	5150000000	2.69E-01	-2.39E-01	-9.95E-01	-2.14E-01	0.00E+00	0.00E+00	0.00E+00	0.00E+00
	5200000000	6.68E-02	-3.43E-01	-8.75E-01	-3.80E-01	0.00E+00	0.00E+00	0.00E+00	0.00E+00
	5250000000	-7.94E-02	-2.30E-01	-7.43E-01	-5.54E-01	0.00E+00	0.00E+00	0.00E+00	0.00E+00
	5300000000	-3.79E-02	-1.42E-01	-5.98E-01	-6.96E-01	0.00E+00	0.00E+00	0.00E+00	0.00E+00
	5350000000	-5.51E-02	-1.85E-01	-4.50E-01	-7.53E-01	0.00E+00	0.00E+00	0.00E+00	0.00E+00
	5400000000	-1.62E-01	-1.10E-01	-2.37E-01	-8.02E-01	0.00E+00	0.00E+00	0.00E+00	0.00E+00
	5450000000	-1.04E-01	7.30E-02	-5.60E-02	-8.50E-01	0.00E+00	0.00E+00	0.00E+00	0.00E+00
	5500000000	1.20E-01	6.90E-02	7.61E-02	-8.12E-01	0.00E+00	0.00E+00	0.00E+00	0.00E+00
	5550000000	1.83E-01	-1.26E-01	2.49E-01	-6.93E-01	0.00E+00	0.00E+00	0.00E+00	0.00E+00
	5600000000	4.21E-02	-2.02E-01	4.08E-01	-5.59E-01	0.00E+00	0.00E+00	0.00E+00	0.00E+00
	5650000000	3.38E-02	-1.32E-01	5.57E-01	-4.06E-01	0.00E+00	0.00E+00	0.00E+00	0.00E+00
	5700000000	8.41E-02	-1.42E-01	6.68E-01	-2.68E-01	0.00E+00	0.00E+00	0.00E+00	0.00E+00
	5750000000	1.21E-01	-2.28E-01	7.17E-01	-1.09E-01	0.00E+00	0.00E+00	0.00E+00	0.00E+00
	5800000000	5.16E-02	-3.23E-01	7.37E-01	6.17E-02	0.00E+00	0.00E+00	0.00E+00	0.00E+00
	5850000000	-6.73E-02	-3.18E-01	7.05E-01	2.29E-01	0.00E+00	0.00E+00	0.00E+00	0.00E+00
	5900000000	-8.82E-02	-2.22E-01	6.57E-01	3.99E-01	0.00E+00	0.00E+00	0.00E+00	0.00E+00
	5950000000	-1.85E-02	-2.30E-01	5.92E-01	5.09E-01	0.00E+00	0.00E+00	0.00E+00	0.00E+00
	6000000000	-1.28E-01	-2.71E-01	7.50E-01	4.85E-02	0.00E+00	0.00E+00	0.00E+00	0.00E+00
