! NanoVNA-App									
! Date: 2024-03-20 20:50:51									
! Start: 1GHz Stop: 6GHz Points: 101									
! S-Parameter data: F S11 S21 S12 S22									
# Hz S RI R 50									
!	Frequency	S11_Real	S11_Imag	S21_Real	S21_Imag	S12_Real	S12_Imag	S22_Real	S22_Imag
	1000000000	1.23E-01	-2.36E-02	-5.53E-01	-8.80E-01	0.00E+00	0.00E+00	0.00E+00	0.00E+00
	1050000000	5.31E-02	-2.33E-02	-3.71E-01	-9.67E-01	0.00E+00	0.00E+00	0.00E+00	0.00E+00
	1100000000	4.99E-02	-1.08E-02	-1.65E-01	-1.02E+00	0.00E+00	0.00E+00	0.00E+00	0.00E+00
	1150000000	3.10E-02	-4.56E-02	3.97E-02	-1.03E+00	0.00E+00	0.00E+00	0.00E+00	0.00E+00
	1200000000	-4.87E-02	-3.58E-02	2.46E-01	-9.88E-01	0.00E+00	0.00E+00	0.00E+00	0.00E+00
	1250000000	-7.65E-02	6.70E-02	4.51E-01	-9.09E-01	0.00E+00	0.00E+00	0.00E+00	0.00E+00
	1300000000	1.66E-02	1.36E-01	6.32E-01	-7.99E-01	0.00E+00	0.00E+00	0.00E+00	0.00E+00
	1350000000	1.02E-01	6.60E-02	7.73E-01	-6.50E-01	0.00E+00	0.00E+00	0.00E+00	0.00E+00
	1400000000	7.56E-02	4.85E-03	9.02E-01	-4.80E-01	0.00E+00	0.00E+00	0.00E+00	0.00E+00
	1450000000	1.91E-02	2.09E-02	9.74E-01	-2.97E-01	0.00E+00	0.00E+00	0.00E+00	0.00E+00
	1500000000	5.23E-02	6.31E-02	1.00E+00	-9.93E-02	0.00E+00	0.00E+00	0.00E+00	0.00E+00
	1550000000	9.42E-02	7.07E-03	9.90E-01	1.04E-01	0.00E+00	0.00E+00	0.00E+00	0.00E+00
	1600000000	1.21E-02	-5.37E-02	9.44E-01	2.96E-01	0.00E+00	0.00E+00	0.00E+00	0.00E+00
	1650000000	-9.18E-02	4.19E-02	8.57E-01	4.64E-01	0.00E+00	0.00E+00	0.00E+00	0.00E+00
	1700000000	-2.02E-02	2.00E-01	7.27E-01	6.05E-01	0.00E+00	0.00E+00	0.00E+00	0.00E+00
	1750000000	1.65E-01	1.97E-01	5.69E-01	7.37E-01	0.00E+00	0.00E+00	0.00E+00	0.00E+00
	1800000000	2.41E-01	3.87E-02	4.19E-01	8.44E-01	0.00E+00	0.00E+00	0.00E+00	0.00E+00
	1850000000	1.53E-01	-7.77E-02	2.65E-01	8.97E-01	0.00E+00	0.00E+00	0.00E+00	0.00E+00
	1900000000	5.90E-02	-5.83E-02	1.19E-01	9.11E-01	0.00E+00	0.00E+00	0.00E+00	0.00E+00
	1950000000	4.72E-02	-1.80E-02	4.95E-03	8.86E-01	0.00E+00	0.00E+00	0.00E+00	0.00E+00
	2000000000	7.30E-02	-1.54E-02	-5.22E-02	8.05E-01	0.00E+00	0.00E+00	0.00E+00	0.00E+00
	2050000000	6.02E-02	-1.85E-01	-3.84E-02	5.58E-01	0.00E+00	0.00E+00	0.00E+00	0.00E+00
	2100000000	-3.90E-01	-3.51E-02	-2.78E-01	1.97E-01	0.00E+00	0.00E+00	0.00E+00	0.00E+00
	2150000000	-1.86E-01	4.68E-01	-4.93E-01	6.06E-02	0.00E+00	0.00E+00	0.00E+00	0.00E+00
	2200000000	2.68E-01	4.79E-01	-5.93E-01	-5.59E-02	0.00E+00	0.00E+00	0.00E+00	0.00E+00
	2250000000	5.14E-01	1.74E-01	-6.28E-01	-1.67E-01	0.00E+00	0.00E+00	0.00E+00	0.00E+00
	2300000000	4.57E-01	-1.70E-01	-6.00E-01	-2.73E-01	0.00E+00	0.00E+00	0.00E+00	0.00E+00
	2350000000	2.02E-01	-3.52E-01	-5.30E-01	-3.82E-01	0.00E+00	0.00E+00	0.00E+00	0.00E+00
	2400000000	-8.75E-02	-3.05E-01	-4.41E-01	-4.74E-01	0.00E+00	0.00E+00	0.00E+00	0.00E+00
	2450000000	-2.38E-01	-6.95E-02	-3.52E-01	-5.34E-01	0.00E+00	0.00E+00	0.00E+00	0.00E+00
	2500000000	-1.16E-01	1.37E-01	-2.85E-01	-5.02E-01	0.00E+00	0.00E+00	0.00E+00	0.00E+00
	2550000000	-1.46E-01	1.31E-01	-2.09E-02	-3.39E-01	0.00E+00	0.00E+00	0.00E+00	0.00E+00
	2600000000	4.55E-02	3.62E-01	2.32E-01	-3.95E-01	0.00E+00	0.00E+00	0.00E+00	0.00E+00
	2650000000	3.30E-01	2.55E-01	3.75E-01	-3.74E-01	0.00E+00	0.00E+00	0.00E+00	0.00E+00
	2700000000	3.97E-01	-1.49E-02	4.98E-01	-2.93E-01	0.00E+00	0.00E+00	0.00E+00	0.00E+00
	2750000000	2.48E-01	-2.11E-01	6.06E-01	-1.83E-01	0.00E+00	0.00E+00	0.00E+00	0.00E+00
	2800000000	3.95E-02	-2.16E-01	6.95E-01	-6.10E-02	0.00E+00	0.00E+00	0.00E+00	0.00E+00
	2850000000	-6.15E-02	-8.94E-02	7.35E-01	6.18E-02	0.00E+00	0.00E+00	0.00E+00	0.00E+00
	2900000000	-4.02E-02	3.20E-02	7.15E-01	1.88E-01	0.00E+00	0.00E+00	0.00E+00	0.00E+00
	2950000000	1.90E-02	7.24E-02	6.41E-01	3.65E-01	0.00E+00	0.00E+00	0.00E+00	0.00E+00
	3000000000	1.04E-01	1.21E-01	5.94E-01	5.17E-01	0.00E+00	0.00E+00	0.00E+00	0.00E+00
	3050000000	2.14E-01	6.19E-02	4.92E-01	6.30E-01	0.00E+00	0.00E+00	0.00E+00	0.00E+00
	3100000000	2.27E-01	-6.50E-02	3.56E-01	7.40E-01	0.00E+00	0.00E+00	0.00E+00	0.00E+00
	3150000000	1.36E-01	-1.41E-01	2.28E-01	8.23E-01	0.00E+00	0.00E+00	0.00E+00	0.00E+00
	3200000000	4.08E-02	-1.07E-01	8.68E-02	8.49E-01	0.00E+00	0.00E+00	0.00E+00	0.00E+00
	3250000000	2.70E-02	-2.94E-02	-7.92E-02	8.36E-01	0.00E+00	0.00E+00	0.00E+00	0.00E+00
	3300000000	6.42E-02	1.08E-02	-2.41E-01	8.00E-01	0.00E+00	0.00E+00	0.00E+00	0.00E+00
	3350000000	9.40E-02	1.36E-02	-3.84E-01	7.35E-01	0.00E+00	0.00E+00	0.00E+00	0.00E+00
	3400000000	9.57E-02	2.71E-02	-4.95E-01	6.52E-01	0.00E+00	0.00E+00	0.00E+00	0.00E+00
	3450000000	1.84E-01	9.43E-02	-5.20E-01	5.04E-01	0.00E+00	0.00E+00	0.00E+00	0.00E+00
	3500000000	2.78E-01	-1.05E-02	-5.83E-01	2.68E-01	0.00E+00	0.00E+00	0.00E+00	0.00E+00
	3550000000	2.59E-01	-1.61E-01	-6.60E-01	1.87E-02	0.00E+00	0.00E+00	0.00E+00	0.00E+00
	3600000000	1.36E-01	-1.91E-01	-7.36E-01	-1.52E-01	0.00E+00	0.00E+00	0.00E+00	0.00E+00
	3650000000	7.63E-02	-1.58E-01	-7.24E-01	-3.11E-01	0.00E+00	0.00E+00	0.00E+00	0.00E+00
	3700000000	3.23E-02	-1.29E-01	-6.67E-01	-4.85E-01	0.00E+00	0.00E+00	0.00E+00	0.00E+00
	3750000000	-5.30E-03	-6.55E-02	-5.95E-01	-6.34E-01	0.00E+00	0.00E+00	0.00E+00	0.00E+00
	3800000000	2.05E-02	1.48E-02	-4.85E-01	-7.34E-01	0.00E+00	0.00E+00	0.00E+00	0.00E+00
	3850000000	7.93E-02	3.22E-02	-3.18E-01	-8.10E-01	0.00E+00	0.00E+00	0.00E+00	0.00E+00
	3900000000	9.14E-02	3.44E-02	-1.41E-01	-8.69E-01	0.00E+00	0.00E+00	0.00E+00	0.00E+00
	3950000000	1.32E-01	9.20E-02	2.84E-02	-8.67E-01	0.00E+00	0.00E+00	0.00E+00	0.00E+00
	4000000000	2.76E-01	8.88E-02	2.32E-01	-8.14E-01	0.00E+00	0.00E+00	0.00E+00	0.00E+00
	4050000000	3.86E-01	-7.86E-02	4.41E-01	-7.63E-01	0.00E+00	0.00E+00	0.00E+00	0.00E+00
	4100000000	3.11E-01	-2.97E-01	5.86E-01	-6.86E-01	0.00E+00	0.00E+00	0.00E+00	0.00E+00
	4150000000	8.95E-02	-3.81E-01	7.16E-01	-5.38E-01	0.00E+00	0.00E+00	0.00E+00	0.00E+00
	4200000000	-9.37E-02	-2.75E-01	8.47E-01	-3.82E-01	0.00E+00	0.00E+00	0.00E+00	0.00E+00
	4250000000	-1.38E-01	-1.36E-01	9.12E-01	-2.36E-01	0.00E+00	0.00E+00	0.00E+00	0.00E+00
	4300000000	-1.53E-01	-2.97E-02	9.13E-01	-4.76E-02	0.00E+00	0.00E+00	0.00E+00	0.00E+00
	4350000000	-1.24E-01	1.43E-01	8.96E-01	1.38E-01	0.00E+00	0.00E+00	0.00E+00	0.00E+00
	4400000000	9.53E-02	2.84E-01	8.17E-01	3.03E-01	0.00E+00	0.00E+00	0.00E+00	0.00E+00
	4450000000	3.82E-01	1.75E-01	6.87E-01	4.78E-01	0.00E+00	0.00E+00	0.00E+00	0.00E+00
	4500000000	4.71E-01	-1.19E-01	5.51E-01	6.38E-01	0.00E+00	0.00E+00	0.00E+00	0.00E+00
	4550000000	3.16E-01	-3.46E-01	3.80E-01	7.45E-01	0.00E+00	0.00E+00	0.00E+00	0.00E+00
	4600000000	1.07E-01	-3.55E-01	1.77E-01	8.34E-01	0.00E+00	0.00E+00	0.00E+00	0.00E+00
	4650000000	3.14E-02	-3.05E-01	-1.95E-02	8.75E-01	0.00E+00	0.00E+00	0.00E+00	0.00E+00
	4700000000	-7.06E-02	-2.40E-01	-2.56E-01	8.85E-01	0.00E+00	0.00E+00	0.00E+00	0.00E+00
	4750000000	-1.12E-01	-1.62E-01	-4.38E-01	8.19E-01	0.00E+00	0.00E+00	0.00E+00	0.00E+00
	4800000000	-1.35E-01	5.52E-03	-6.97E-01	7.35E-01	0.00E+00	0.00E+00	0.00E+00	0.00E+00
	4850000000	5.55E-02	1.40E-01	-9.36E-01	7.08E-01	0.00E+00	0.00E+00	0.00E+00	0.00E+00
	4900000000	2.54E-01	1.02E-02	-1.05E+00	6.68E-01	0.00E+00	0.00E+00	0.00E+00	0.00E+00
	4950000000	1.99E-01	-1.89E-01	-1.05E+00	5.40E-01	0.00E+00	0.00E+00	0.00E+00	0.00E+00
	5000000000	1.88E-02	-1.68E-01	-1.07E+00	3.44E-01	0.00E+00	0.00E+00	0.00E+00	0.00E+00
	5050000000	4.44E-02	8.77E-03	-1.09E+00	5.84E-02	0.00E+00	0.00E+00	0.00E+00	0.00E+00
	5100000000	2.45E-01	-1.63E-02	-1.09E+00	-4.04E-02	0.00E+00	0.00E+00	0.00E+00	0.00E+00
	5150000000	2.69E-01	-2.39E-01	-9.98E-01	-2.09E-01	0.00E+00	0.00E+00	0.00E+00	0.00E+00
	5200000000	6.93E-02	-3.45E-01	-8.76E-01	-3.80E-01	0.00E+00	0.00E+00	0.00E+00	0.00E+00
	5250000000	-7.69E-02	-2.31E-01	-7.45E-01	-5.54E-01	0.00E+00	0.00E+00	0.00E+00	0.00E+00
	5300000000	-3.79E-02	-1.43E-01	-6.00E-01	-6.94E-01	0.00E+00	0.00E+00	0.00E+00	0.00E+00
	5350000000	-5.40E-02	-1.87E-01	-4.50E-01	-7.51E-01	0.00E+00	0.00E+00	0.00E+00	0.00E+00
	5400000000	-1.63E-01	-1.12E-01	-2.36E-01	-8.04E-01	0.00E+00	0.00E+00	0.00E+00	0.00E+00
	5450000000	-1.04E-01	7.43E-02	-5.48E-02	-8.50E-01	0.00E+00	0.00E+00	0.00E+00	0.00E+00
	5500000000	1.21E-01	6.90E-02	7.67E-02	-8.11E-01	0.00E+00	0.00E+00	0.00E+00	0.00E+00
	5550000000	1.81E-01	-1.26E-01	2.48E-01	-6.92E-01	0.00E+00	0.00E+00	0.00E+00	0.00E+00
	5600000000	4.35E-02	-2.00E-01	4.07E-01	-5.58E-01	0.00E+00	0.00E+00	0.00E+00	0.00E+00
	5650000000	3.74E-02	-1.34E-01	5.58E-01	-4.07E-01	0.00E+00	0.00E+00	0.00E+00	0.00E+00
	5700000000	8.49E-02	-1.44E-01	6.69E-01	-2.67E-01	0.00E+00	0.00E+00	0.00E+00	0.00E+00
	5750000000	1.21E-01	-2.30E-01	7.18E-01	-1.04E-01	0.00E+00	0.00E+00	0.00E+00	0.00E+00
	5800000000	5.38E-02	-3.23E-01	7.38E-01	6.23E-02	0.00E+00	0.00E+00	0.00E+00	0.00E+00
	5850000000	-6.77E-02	-3.18E-01	7.05E-01	2.28E-01	0.00E+00	0.00E+00	0.00E+00	0.00E+00
	5900000000	-9.00E-02	-2.21E-01	6.60E-01	3.96E-01	0.00E+00	0.00E+00	0.00E+00	0.00E+00
	5950000000	-1.76E-02	-2.30E-01	5.91E-01	5.11E-01	0.00E+00	0.00E+00	0.00E+00	0.00E+00
	6000000000	-1.26E-01	-2.70E-01	7.50E-01	4.63E-02	0.00E+00	0.00E+00	0.00E+00	0.00E+00
