! NanoVNA-App
! Date: 2024-03-20 19:52:44
! Start: 1GHz Stop: 6GHz Points: 101
! S-Parameter data: F S11 S21 S12 S22
# Hz S RI R 50
!     Frequency           S11_Real           S11_Imag           S21_Real           S21_Imag           S12_Real           S12_Imag           S22_Real           S22_Imag
     1000000000    1.241009012e-01   -2.419250458e-02   -5.520073175e-01   -8.806263208e-01    0.000000000e+00    0.000000000e+00    0.000000000e+00    0.000000000e+00
     1050000000    5.371183529e-02   -2.379418910e-02   -3.702717423e-01   -9.666951895e-01    0.000000000e+00    0.000000000e+00    0.000000000e+00    0.000000000e+00
     1100000000    5.062327906e-02   -1.059057843e-02   -1.624228060e-01   -1.020076871e+00    0.000000000e+00    0.000000000e+00    0.000000000e+00    0.000000000e+00
     1150000000    3.224718943e-02   -4.521046206e-02    4.230139777e-02   -1.031556010e+00    0.000000000e+00    0.000000000e+00    0.000000000e+00    0.000000000e+00
     1200000000   -4.722057655e-02   -3.623649478e-02    2.484325320e-01   -9.883770347e-01    0.000000000e+00    0.000000000e+00    0.000000000e+00    0.000000000e+00
     1250000000   -7.585965097e-02    6.644897163e-02    4.533118904e-01   -9.077387452e-01    0.000000000e+00    0.000000000e+00    0.000000000e+00    0.000000000e+00
     1300000000    1.681221277e-02    1.361812800e-01    6.349065900e-01   -7.978652120e-01    0.000000000e+00    0.000000000e+00    0.000000000e+00    0.000000000e+00
     1350000000    1.034870595e-01    6.682609022e-02    7.742793560e-01   -6.499699354e-01    0.000000000e+00    0.000000000e+00    0.000000000e+00    0.000000000e+00
     1400000000    7.675579935e-02    5.022959784e-03    9.035493135e-01   -4.785513282e-01    0.000000000e+00    0.000000000e+00    0.000000000e+00    0.000000000e+00
     1450000000    1.970851235e-02    2.091946825e-02    9.760103226e-01   -2.947234511e-01    0.000000000e+00    0.000000000e+00    0.000000000e+00    0.000000000e+00
     1500000000    5.247543380e-02    6.361757219e-02    1.001529217e+00   -9.737228602e-02    0.000000000e+00    0.000000000e+00    0.000000000e+00    0.000000000e+00
     1550000000    9.518905729e-02    7.864981890e-03    9.904165268e-01    1.069968119e-01    0.000000000e+00    0.000000000e+00    0.000000000e+00    0.000000000e+00
     1600000000    1.340170950e-02   -5.369785801e-02    9.437577724e-01    2.977618575e-01    0.000000000e+00    0.000000000e+00    0.000000000e+00    0.000000000e+00
     1650000000   -9.118687361e-02    4.184341803e-02    8.554772139e-01    4.646217525e-01    0.000000000e+00    0.000000000e+00    0.000000000e+00    0.000000000e+00
     1700000000   -2.079381421e-02    2.001865953e-01    7.260576487e-01    6.075937748e-01    0.000000000e+00    0.000000000e+00    0.000000000e+00    0.000000000e+00
     1750000000    1.660268903e-01    1.985426694e-01    5.684911609e-01    7.382130027e-01    0.000000000e+00    0.000000000e+00    0.000000000e+00    0.000000000e+00
     1800000000    2.419521064e-01    3.888703883e-02    4.166311622e-01    8.459430337e-01    0.000000000e+00    0.000000000e+00    0.000000000e+00    0.000000000e+00
     1850000000    1.534238011e-01   -7.728990167e-02    2.630493939e-01    8.989924192e-01    0.000000000e+00    0.000000000e+00    0.000000000e+00    0.000000000e+00
     1900000000    5.986244977e-02   -5.796970427e-02    1.174297631e-01    9.124963284e-01    0.000000000e+00    0.000000000e+00    0.000000000e+00    0.000000000e+00
     1950000000    4.789334163e-02   -1.878202334e-02    3.388685174e-03    8.884955049e-01    0.000000000e+00    0.000000000e+00    0.000000000e+00    0.000000000e+00
     2000000000    7.084543258e-02   -1.677203923e-02   -5.561830103e-02    8.066344261e-01    0.000000000e+00    0.000000000e+00    0.000000000e+00    0.000000000e+00
     2050000000    5.901025981e-02   -1.783803552e-01   -4.519572854e-02    5.665344000e-01    0.000000000e+00    0.000000000e+00    0.000000000e+00    0.000000000e+00
     2100000000   -3.841948509e-01   -3.771422803e-02   -2.725503147e-01    2.024059147e-01    0.000000000e+00    0.000000000e+00    0.000000000e+00    0.000000000e+00
     2150000000   -1.876622587e-01    4.665203691e-01   -4.891290963e-01    6.058271974e-02    0.000000000e+00    0.000000000e+00    0.000000000e+00    0.000000000e+00
     2200000000    2.684723735e-01    4.804374278e-01   -5.904219151e-01   -5.642888322e-02    0.000000000e+00    0.000000000e+00    0.000000000e+00    0.000000000e+00
     2250000000    5.143060088e-01    1.745252311e-01   -6.248000264e-01   -1.682485789e-01    0.000000000e+00    0.000000000e+00    0.000000000e+00    0.000000000e+00
     2300000000    4.574452937e-01   -1.705979556e-01   -5.960958004e-01   -2.747764289e-01    0.000000000e+00    0.000000000e+00    0.000000000e+00    0.000000000e+00
     2350000000    1.995052099e-01   -3.494152129e-01   -5.253142118e-01   -3.828455210e-01    0.000000000e+00    0.000000000e+00    0.000000000e+00    0.000000000e+00
     2400000000   -8.814487606e-02   -3.038734496e-01   -4.386574030e-01   -4.746059775e-01    0.000000000e+00    0.000000000e+00    0.000000000e+00    0.000000000e+00
     2450000000   -2.374107242e-01   -6.769174337e-02   -3.495989442e-01   -5.343471766e-01    0.000000000e+00    0.000000000e+00    0.000000000e+00    0.000000000e+00
     2500000000   -1.146449521e-01    1.399349868e-01   -2.812998891e-01   -5.045326352e-01    0.000000000e+00    0.000000000e+00    0.000000000e+00    0.000000000e+00
     2550000000   -1.418117285e-01    1.240463182e-01   -2.299106121e-02   -3.328044415e-01    0.000000000e+00    0.000000000e+00    0.000000000e+00    0.000000000e+00
     2600000000    3.944233432e-02    3.623388112e-01    2.412416339e-01   -3.881887496e-01    0.000000000e+00    0.000000000e+00    0.000000000e+00    0.000000000e+00
     2650000000    3.300936520e-01    2.580499947e-01    3.848356009e-01   -3.732273877e-01    0.000000000e+00    0.000000000e+00    0.000000000e+00    0.000000000e+00
     2700000000    3.999321461e-01   -1.766130514e-02    5.075935125e-01   -2.986705005e-01    0.000000000e+00    0.000000000e+00    0.000000000e+00    0.000000000e+00
     2750000000    2.468366772e-01   -2.114975601e-01    6.105647087e-01   -1.866339296e-01    0.000000000e+00    0.000000000e+00    0.000000000e+00    0.000000000e+00
     2800000000    4.121847823e-02   -2.147958279e-01    6.979494691e-01   -6.040760875e-02    0.000000000e+00    0.000000000e+00    0.000000000e+00    0.000000000e+00
     2850000000   -5.929944664e-02   -8.998279274e-02    7.372197509e-01    6.029797718e-02    0.000000000e+00    0.000000000e+00    0.000000000e+00    0.000000000e+00
     2900000000   -4.025293142e-02    2.999819815e-02    7.161151767e-01    1.860897392e-01    0.000000000e+00    0.000000000e+00    0.000000000e+00    0.000000000e+00
     2950000000    1.594971679e-02    7.099252939e-02    6.348818541e-01    3.597899675e-01    0.000000000e+00    0.000000000e+00    0.000000000e+00    0.000000000e+00
     3000000000    1.002876535e-01    1.224977970e-01    5.916364193e-01    5.147337317e-01    0.000000000e+00    0.000000000e+00    0.000000000e+00    0.000000000e+00
     3050000000    2.116856277e-01    6.460896879e-02    4.920897782e-01    6.295742393e-01    0.000000000e+00    0.000000000e+00    0.000000000e+00    0.000000000e+00
     3100000000    2.282016277e-01   -6.166838855e-02    3.558245599e-01    7.381363511e-01    0.000000000e+00    0.000000000e+00    0.000000000e+00    0.000000000e+00
     3150000000    1.376780868e-01   -1.393718719e-01    2.245318592e-01    8.227446675e-01    0.000000000e+00    0.000000000e+00    0.000000000e+00    0.000000000e+00
     3200000000    4.313251376e-02   -1.076124907e-01    8.466672897e-02    8.485653996e-01    0.000000000e+00    0.000000000e+00    0.000000000e+00    0.000000000e+00
     3250000000    2.768767439e-02   -3.202680871e-02   -8.097653091e-02    8.353995085e-01    0.000000000e+00    0.000000000e+00    0.000000000e+00    0.000000000e+00
     3300000000    6.195104867e-02    8.374938741e-03   -2.423378676e-01    8.006241918e-01    0.000000000e+00    0.000000000e+00    0.000000000e+00    0.000000000e+00
     3350000000    9.089560062e-02    1.358154509e-02   -3.856561482e-01    7.353305221e-01    0.000000000e+00    0.000000000e+00    0.000000000e+00    0.000000000e+00
     3400000000    9.475704283e-02    2.957892418e-02   -4.994279742e-01    6.506785750e-01    0.000000000e+00    0.000000000e+00    0.000000000e+00    0.000000000e+00
     3450000000    1.837314516e-01    9.305913001e-02   -5.239912868e-01    5.065602660e-01    0.000000000e+00    0.000000000e+00    0.000000000e+00    0.000000000e+00
     3500000000    2.743650675e-01   -8.307216689e-03   -5.853109360e-01    2.741245925e-01    0.000000000e+00    0.000000000e+00    0.000000000e+00    0.000000000e+00
     3550000000    2.640129626e-01   -1.545266509e-01   -6.568498611e-01    2.333383448e-02    0.000000000e+00    0.000000000e+00    0.000000000e+00    0.000000000e+00
     3600000000    1.418633312e-01   -1.939064860e-01   -7.278256416e-01   -1.477081925e-01    0.000000000e+00    0.000000000e+00    0.000000000e+00    0.000000000e+00
     3650000000    7.567626983e-02   -1.657728404e-01   -7.176091671e-01   -3.069405854e-01    0.000000000e+00    0.000000000e+00    0.000000000e+00    0.000000000e+00
     3700000000    2.652884647e-02   -1.319690943e-01   -6.601760983e-01   -4.819480181e-01    0.000000000e+00    0.000000000e+00    0.000000000e+00    0.000000000e+00
     3750000000   -1.068246551e-02   -6.282725185e-02   -5.881477594e-01   -6.303763390e-01    0.000000000e+00    0.000000000e+00    0.000000000e+00    0.000000000e+00
     3800000000    1.893951744e-02    2.066074871e-02   -4.788371325e-01   -7.298750281e-01    0.000000000e+00    0.000000000e+00    0.000000000e+00    0.000000000e+00
     3850000000    8.349614590e-02    3.660465032e-02   -3.109986484e-01   -8.053984046e-01    0.000000000e+00    0.000000000e+00    0.000000000e+00    0.000000000e+00
     3900000000    9.774666280e-02    3.285825253e-02   -1.314820498e-01   -8.640718460e-01    0.000000000e+00    0.000000000e+00    0.000000000e+00    0.000000000e+00
     3950000000    1.343715787e-01    8.523342013e-02    3.785237670e-02   -8.618192673e-01    0.000000000e+00    0.000000000e+00    0.000000000e+00    0.000000000e+00
     4000000000    2.723922133e-01    8.449051529e-02    2.413593084e-01   -8.110290170e-01    0.000000000e+00    0.000000000e+00    0.000000000e+00    0.000000000e+00
     4050000000    3.822206259e-01   -7.826990634e-02    4.462518692e-01   -7.594252825e-01    0.000000000e+00    0.000000000e+00    0.000000000e+00    0.000000000e+00
     4100000000    3.100121617e-01   -2.948423028e-01    5.918049812e-01   -6.809405684e-01    0.000000000e+00    0.000000000e+00    0.000000000e+00    0.000000000e+00
     4150000000    8.998592198e-02   -3.781608939e-01    7.212957740e-01   -5.297218561e-01    0.000000000e+00    0.000000000e+00    0.000000000e+00    0.000000000e+00
     4200000000   -9.221593291e-02   -2.743144929e-01    8.497020006e-01   -3.747574687e-01    0.000000000e+00    0.000000000e+00    0.000000000e+00    0.000000000e+00
     4250000000   -1.359088421e-01   -1.347051859e-01    9.128265977e-01   -2.293815315e-01    0.000000000e+00    0.000000000e+00    0.000000000e+00    0.000000000e+00
     4300000000   -1.506884396e-01   -3.047458455e-02    9.131397009e-01   -4.096023366e-02    0.000000000e+00    0.000000000e+00    0.000000000e+00    0.000000000e+00
     4350000000   -1.222710833e-01    1.420738250e-01    8.955828547e-01    1.406985521e-01    0.000000000e+00    0.000000000e+00    0.000000000e+00    0.000000000e+00
     4400000000    9.569578618e-02    2.848204970e-01    8.175069094e-01    3.067378402e-01    0.000000000e+00    0.000000000e+00    0.000000000e+00    0.000000000e+00
     4450000000    3.828295767e-01    1.748617291e-01    6.855832934e-01    4.815182686e-01    0.000000000e+00    0.000000000e+00    0.000000000e+00    0.000000000e+00
     4500000000    4.715415537e-01   -1.183395609e-01    5.494586229e-01    6.442193985e-01    0.000000000e+00    0.000000000e+00    0.000000000e+00    0.000000000e+00
     4550000000    3.139829934e-01   -3.452315032e-01    3.788908720e-01    7.480765581e-01    0.000000000e+00    0.000000000e+00    0.000000000e+00    0.000000000e+00
     4600000000    1.059506163e-01   -3.521203399e-01    1.746962517e-01    8.365368247e-01    0.000000000e+00    0.000000000e+00    0.000000000e+00    0.000000000e+00
     4650000000    3.302264214e-02   -3.018586338e-01   -2.225382999e-02    8.756126761e-01    0.000000000e+00    0.000000000e+00    0.000000000e+00    0.000000000e+00
     4700000000   -7.124832273e-02   -2.392962128e-01   -2.593955398e-01    8.818490505e-01    0.000000000e+00    0.000000000e+00    0.000000000e+00    0.000000000e+00
     4750000000   -1.124774069e-01   -1.617676020e-01   -4.415390193e-01    8.183113337e-01    0.000000000e+00    0.000000000e+00    0.000000000e+00    0.000000000e+00
     4800000000   -1.351927668e-01    5.115212873e-03   -7.029850483e-01    7.303903699e-01    0.000000000e+00    0.000000000e+00    0.000000000e+00    0.000000000e+00
     4850000000    5.414116383e-02    1.408449560e-01   -9.387748241e-01    7.045069933e-01    0.000000000e+00    0.000000000e+00    0.000000000e+00    0.000000000e+00
     4900000000    2.506325543e-01    1.203087438e-02   -1.047020316e+00    6.629777551e-01    0.000000000e+00    0.000000000e+00    0.000000000e+00    0.000000000e+00
     4950000000    1.965941042e-01   -1.858348399e-01   -1.055204153e+00    5.344426036e-01    0.000000000e+00    0.000000000e+00    0.000000000e+00    0.000000000e+00
     5000000000    1.987653412e-02   -1.644274741e-01   -1.072070360e+00    3.382506967e-01    0.000000000e+00    0.000000000e+00    0.000000000e+00    0.000000000e+00
     5050000000    4.641613737e-02    9.336652234e-03   -1.089078426e+00    5.161419883e-02    0.000000000e+00    0.000000000e+00    0.000000000e+00    0.000000000e+00
     5100000000    2.443925291e-01   -1.841811650e-02   -1.087460518e+00   -4.752266034e-02    0.000000000e+00    0.000000000e+00    0.000000000e+00    0.000000000e+00
     5150000000    2.672012746e-01   -2.397547513e-01   -9.949290752e-01   -2.164274305e-01    0.000000000e+00    0.000000000e+00    0.000000000e+00    0.000000000e+00
     5200000000    6.575477868e-02   -3.447155654e-01   -8.724905252e-01   -3.889525831e-01    0.000000000e+00    0.000000000e+00    0.000000000e+00    0.000000000e+00
     5250000000   -8.016670495e-02   -2.285596579e-01   -7.353838086e-01   -5.630781054e-01    0.000000000e+00    0.000000000e+00    0.000000000e+00    0.000000000e+00
     5300000000   -4.147307575e-02   -1.386956573e-01   -5.948402286e-01   -6.973345876e-01    0.000000000e+00    0.000000000e+00    0.000000000e+00    0.000000000e+00
     5350000000   -5.491052940e-02   -1.838376224e-01   -4.400397837e-01   -7.588648796e-01    0.000000000e+00    0.000000000e+00    0.000000000e+00    0.000000000e+00
     5400000000   -1.633674353e-01   -1.090957150e-01   -2.314687818e-01   -8.049865961e-01    0.000000000e+00    0.000000000e+00    0.000000000e+00    0.000000000e+00
     5450000000   -1.057082042e-01    7.354768366e-02   -4.730985314e-02   -8.518551588e-01    0.000000000e+00    0.000000000e+00    0.000000000e+00    0.000000000e+00
     5500000000    1.187013909e-01    7.188231498e-02    8.331227303e-02   -8.125068545e-01    0.000000000e+00    0.000000000e+00    0.000000000e+00    0.000000000e+00
     5550000000    1.818888932e-01   -1.271862090e-01    2.507476807e-01   -6.938126087e-01    0.000000000e+00    0.000000000e+00    0.000000000e+00    0.000000000e+00
     5600000000    4.043498263e-02   -2.057719827e-01    4.133942127e-01   -5.559519529e-01    0.000000000e+00    0.000000000e+00    0.000000000e+00    0.000000000e+00
     5650000000    2.604813315e-02   -1.315109283e-01    5.586814284e-01   -4.060666859e-01    0.000000000e+00    0.000000000e+00    0.000000000e+00    0.000000000e+00
     5700000000    8.417891711e-02   -1.382141560e-01    6.703921556e-01   -2.606091797e-01    0.000000000e+00    0.000000000e+00    0.000000000e+00    0.000000000e+00
     5750000000    1.199199930e-01   -2.257358879e-01    7.190377116e-01   -9.986502677e-02    0.000000000e+00    0.000000000e+00    0.000000000e+00    0.000000000e+00
     5800000000    5.432947725e-02   -3.207933605e-01    7.371171713e-01    7.104517519e-02    0.000000000e+00    0.000000000e+00    0.000000000e+00    0.000000000e+00
     5850000000   -6.758678705e-02   -3.173308969e-01    7.035841942e-01    2.326125354e-01    0.000000000e+00    0.000000000e+00    0.000000000e+00    0.000000000e+00
     5900000000   -9.280321002e-02   -2.223840356e-01    6.560023427e-01    4.031780064e-01    0.000000000e+00    0.000000000e+00    0.000000000e+00    0.000000000e+00
     5950000000   -2.478603274e-02   -2.300879210e-01    5.894811153e-01    5.161952376e-01    0.000000000e+00    0.000000000e+00    0.000000000e+00    0.000000000e+00
     6000000000   -1.339629143e-01   -2.673518062e-01    7.520063519e-01    5.780568719e-02    0.000000000e+00    0.000000000e+00    0.000000000e+00    0.000000000e+00
