! NanoVNA-App									
! Date: 2024-03-21 02:40:41									
! Start: 1GHz Stop: 6GHz Points: 101									
! S-Parameter data: F S11 S21 S12 S22									
# Hz S RI R 50									
!	Frequency	S11_Real	S11_Imag	S21_Real	S21_Imag	S12_Real	S12_Imag	S22_Real	S22_Imag
	1000000000	1.21E-01	-2.29E-02	-5.57E-01	-8.77E-01	0.00E+00	0.00E+00	0.00E+00	0.00E+00
	1050000000	5.26E-02	-2.24E-02	-3.75E-01	-9.65E-01	0.00E+00	0.00E+00	0.00E+00	0.00E+00
	1100000000	4.97E-02	-1.13E-02	-1.70E-01	-1.02E+00	0.00E+00	0.00E+00	0.00E+00	0.00E+00
	1150000000	2.99E-02	-4.68E-02	3.85E-02	-1.03E+00	0.00E+00	0.00E+00	0.00E+00	0.00E+00
	1200000000	-5.07E-02	-3.68E-02	2.43E-01	-9.90E-01	0.00E+00	0.00E+00	0.00E+00	0.00E+00
	1250000000	-7.82E-02	6.63E-02	4.49E-01	-9.10E-01	0.00E+00	0.00E+00	0.00E+00	0.00E+00
	1300000000	1.47E-02	1.34E-01	6.31E-01	-8.02E-01	0.00E+00	0.00E+00	0.00E+00	0.00E+00
	1350000000	9.98E-02	6.55E-02	7.71E-01	-6.56E-01	0.00E+00	0.00E+00	0.00E+00	0.00E+00
	1400000000	7.24E-02	4.85E-03	9.00E-01	-4.84E-01	0.00E+00	0.00E+00	0.00E+00	0.00E+00
	1450000000	1.74E-02	2.30E-02	9.74E-01	-3.01E-01	0.00E+00	0.00E+00	0.00E+00	0.00E+00
	1500000000	5.30E-02	6.45E-02	1.00E+00	-1.03E-01	0.00E+00	0.00E+00	0.00E+00	0.00E+00
	1550000000	9.66E-02	6.03E-03	9.92E-01	1.01E-01	0.00E+00	0.00E+00	0.00E+00	0.00E+00
	1600000000	1.40E-02	-5.75E-02	9.47E-01	2.95E-01	0.00E+00	0.00E+00	0.00E+00	0.00E+00
	1650000000	-9.27E-02	3.64E-02	8.61E-01	4.62E-01	0.00E+00	0.00E+00	0.00E+00	0.00E+00
	1700000000	-2.47E-02	1.95E-01	7.32E-01	6.06E-01	0.00E+00	0.00E+00	0.00E+00	0.00E+00
	1750000000	1.59E-01	1.96E-01	5.75E-01	7.39E-01	0.00E+00	0.00E+00	0.00E+00	0.00E+00
	1800000000	2.36E-01	4.23E-02	4.23E-01	8.47E-01	0.00E+00	0.00E+00	0.00E+00	0.00E+00
	1850000000	1.52E-01	-7.14E-02	2.70E-01	9.01E-01	0.00E+00	0.00E+00	0.00E+00	0.00E+00
	1900000000	6.49E-02	-5.47E-02	1.24E-01	9.14E-01	0.00E+00	0.00E+00	0.00E+00	0.00E+00
	1950000000	5.40E-02	-2.12E-02	6.58E-03	8.94E-01	0.00E+00	0.00E+00	0.00E+00	0.00E+00
	2000000000	7.61E-02	-2.17E-02	-4.86E-02	8.13E-01	0.00E+00	0.00E+00	0.00E+00	0.00E+00
	2050000000	6.20E-02	-1.93E-01	-3.91E-02	5.65E-01	0.00E+00	0.00E+00	0.00E+00	0.00E+00
	2100000000	-4.00E-01	-4.66E-02	-2.79E-01	2.04E-01	0.00E+00	0.00E+00	0.00E+00	0.00E+00
	2150000000	-1.98E-01	4.67E-01	-5.00E-01	6.68E-02	0.00E+00	0.00E+00	0.00E+00	0.00E+00
	2200000000	2.60E-01	4.86E-01	-6.04E-01	-5.12E-02	0.00E+00	0.00E+00	0.00E+00	0.00E+00
	2250000000	5.12E-01	1.85E-01	-6.40E-01	-1.61E-01	0.00E+00	0.00E+00	0.00E+00	0.00E+00
	2300000000	4.66E-01	-1.59E-01	-6.15E-01	-2.70E-01	0.00E+00	0.00E+00	0.00E+00	0.00E+00
	2350000000	2.18E-01	-3.48E-01	-5.46E-01	-3.78E-01	0.00E+00	0.00E+00	0.00E+00	0.00E+00
	2400000000	-7.18E-02	-3.20E-01	-4.60E-01	-4.73E-01	0.00E+00	0.00E+00	0.00E+00	0.00E+00
	2450000000	-2.42E-01	-9.26E-02	-3.75E-01	-5.34E-01	0.00E+00	0.00E+00	0.00E+00	0.00E+00
	2500000000	-1.34E-01	1.27E-01	-3.09E-01	-5.03E-01	0.00E+00	0.00E+00	0.00E+00	0.00E+00
	2550000000	-1.70E-01	1.40E-01	-3.94E-02	-3.43E-01	0.00E+00	0.00E+00	0.00E+00	0.00E+00
	2600000000	3.87E-02	3.81E-01	2.07E-01	-4.03E-01	0.00E+00	0.00E+00	0.00E+00	0.00E+00
	2650000000	3.39E-01	2.71E-01	3.50E-01	-3.83E-01	0.00E+00	0.00E+00	0.00E+00	0.00E+00
	2700000000	4.15E-01	-1.07E-02	4.75E-01	-3.03E-01	0.00E+00	0.00E+00	0.00E+00	0.00E+00
	2750000000	2.64E-01	-2.21E-01	5.84E-01	-1.96E-01	0.00E+00	0.00E+00	0.00E+00	0.00E+00
	2800000000	4.66E-02	-2.32E-01	6.70E-01	-7.07E-02	0.00E+00	0.00E+00	0.00E+00	0.00E+00
	2850000000	-7.55E-02	-1.06E-01	7.20E-01	4.80E-02	0.00E+00	0.00E+00	0.00E+00	0.00E+00
	2900000000	-6.02E-02	3.37E-02	7.05E-01	1.70E-01	0.00E+00	0.00E+00	0.00E+00	0.00E+00
	2950000000	9.63E-03	8.74E-02	6.33E-01	3.42E-01	0.00E+00	0.00E+00	0.00E+00	0.00E+00
	3000000000	1.09E-01	1.34E-01	5.89E-01	4.99E-01	0.00E+00	0.00E+00	0.00E+00	0.00E+00
	3050000000	2.24E-01	6.56E-02	4.92E-01	6.13E-01	0.00E+00	0.00E+00	0.00E+00	0.00E+00
	3100000000	2.37E-01	-6.75E-02	3.60E-01	7.23E-01	0.00E+00	0.00E+00	0.00E+00	0.00E+00
	3150000000	1.41E-01	-1.49E-01	2.36E-01	8.08E-01	0.00E+00	0.00E+00	0.00E+00	0.00E+00
	3200000000	4.16E-02	-1.16E-01	9.81E-02	8.35E-01	0.00E+00	0.00E+00	0.00E+00	0.00E+00
	3250000000	2.12E-02	-3.59E-02	-6.46E-02	8.24E-01	0.00E+00	0.00E+00	0.00E+00	0.00E+00
	3300000000	5.62E-02	1.06E-02	-2.23E-01	7.91E-01	0.00E+00	0.00E+00	0.00E+00	0.00E+00
	3350000000	9.08E-02	1.76E-02	-3.68E-01	7.29E-01	0.00E+00	0.00E+00	0.00E+00	0.00E+00
	3400000000	9.60E-02	3.16E-02	-4.83E-01	6.47E-01	0.00E+00	0.00E+00	0.00E+00	0.00E+00
	3450000000	1.85E-01	9.62E-02	-5.06E-01	5.07E-01	0.00E+00	0.00E+00	0.00E+00	0.00E+00
	3500000000	2.78E-01	-6.57E-03	-5.69E-01	2.79E-01	0.00E+00	0.00E+00	0.00E+00	0.00E+00
	3550000000	2.71E-01	-1.49E-01	-6.41E-01	3.12E-02	0.00E+00	0.00E+00	0.00E+00	0.00E+00
	3600000000	1.51E-01	-1.99E-01	-7.13E-01	-1.38E-01	0.00E+00	0.00E+00	0.00E+00	0.00E+00
	3650000000	7.68E-02	-1.75E-01	-7.04E-01	-2.96E-01	0.00E+00	0.00E+00	0.00E+00	0.00E+00
	3700000000	2.07E-02	-1.37E-01	-6.51E-01	-4.70E-01	0.00E+00	0.00E+00	0.00E+00	0.00E+00
	3750000000	-1.73E-02	-6.15E-02	-5.81E-01	-6.19E-01	0.00E+00	0.00E+00	0.00E+00	0.00E+00
	3800000000	1.39E-02	2.56E-02	-4.72E-01	-7.19E-01	0.00E+00	0.00E+00	0.00E+00	0.00E+00
	3850000000	8.25E-02	4.47E-02	-3.09E-01	-7.94E-01	0.00E+00	0.00E+00	0.00E+00	0.00E+00
	3900000000	1.03E-01	3.93E-02	-1.31E-01	-8.54E-01	0.00E+00	0.00E+00	0.00E+00	0.00E+00
	3950000000	1.41E-01	8.52E-02	3.48E-02	-8.53E-01	0.00E+00	0.00E+00	0.00E+00	0.00E+00
	4000000000	2.74E-01	7.97E-02	2.40E-01	-8.03E-01	0.00E+00	0.00E+00	0.00E+00	0.00E+00
	4050000000	3.79E-01	-8.28E-02	4.44E-01	-7.55E-01	0.00E+00	0.00E+00	0.00E+00	0.00E+00
	4100000000	3.05E-01	-2.96E-01	5.88E-01	-6.79E-01	0.00E+00	0.00E+00	0.00E+00	0.00E+00
	4150000000	8.64E-02	-3.77E-01	7.18E-01	-5.32E-01	0.00E+00	0.00E+00	0.00E+00	0.00E+00
	4200000000	-9.39E-02	-2.72E-01	8.49E-01	-3.78E-01	0.00E+00	0.00E+00	0.00E+00	0.00E+00
	4250000000	-1.35E-01	-1.34E-01	9.11E-01	-2.36E-01	0.00E+00	0.00E+00	0.00E+00	0.00E+00
	4300000000	-1.49E-01	-3.21E-02	9.12E-01	-4.85E-02	0.00E+00	0.00E+00	0.00E+00	0.00E+00
	4350000000	-1.23E-01	1.38E-01	8.96E-01	1.33E-01	0.00E+00	0.00E+00	0.00E+00	0.00E+00
	4400000000	9.33E-02	2.80E-01	8.18E-01	2.97E-01	0.00E+00	0.00E+00	0.00E+00	0.00E+00
	4450000000	3.80E-01	1.73E-01	6.89E-01	4.72E-01	0.00E+00	0.00E+00	0.00E+00	0.00E+00
	4500000000	4.69E-01	-1.19E-01	5.54E-01	6.35E-01	0.00E+00	0.00E+00	0.00E+00	0.00E+00
	4550000000	3.14E-01	-3.46E-01	3.85E-01	7.41E-01	0.00E+00	0.00E+00	0.00E+00	0.00E+00
	4600000000	1.07E-01	-3.53E-01	1.82E-01	8.31E-01	0.00E+00	0.00E+00	0.00E+00	0.00E+00
	4650000000	3.57E-02	-3.04E-01	-1.55E-02	8.70E-01	0.00E+00	0.00E+00	0.00E+00	0.00E+00
	4700000000	-6.50E-02	-2.41E-01	-2.44E-01	8.83E-01	0.00E+00	0.00E+00	0.00E+00	0.00E+00
	4750000000	-1.07E-01	-1.68E-01	-4.30E-01	8.17E-01	0.00E+00	0.00E+00	0.00E+00	0.00E+00
	4800000000	-1.32E-01	-7.16E-04	-6.87E-01	7.36E-01	0.00E+00	0.00E+00	0.00E+00	0.00E+00
	4850000000	5.52E-02	1.33E-01	-9.25E-01	7.09E-01	0.00E+00	0.00E+00	0.00E+00	0.00E+00
	4900000000	2.51E-01	5.39E-03	-1.03E+00	6.74E-01	0.00E+00	0.00E+00	0.00E+00	0.00E+00
	4950000000	1.96E-01	-1.90E-01	-1.04E+00	5.44E-01	0.00E+00	0.00E+00	0.00E+00	0.00E+00
	5000000000	1.88E-02	-1.65E-01	-1.06E+00	3.52E-01	0.00E+00	0.00E+00	0.00E+00	0.00E+00
	5050000000	5.00E-02	1.14E-02	-1.08E+00	7.17E-02	0.00E+00	0.00E+00	0.00E+00	0.00E+00
	5100000000	2.51E-01	-1.87E-02	-1.08E+00	-2.67E-02	0.00E+00	0.00E+00	0.00E+00	0.00E+00
	5150000000	2.74E-01	-2.42E-01	-9.90E-01	-1.96E-01	0.00E+00	0.00E+00	0.00E+00	0.00E+00
	5200000000	7.27E-02	-3.48E-01	-8.71E-01	-3.74E-01	0.00E+00	0.00E+00	0.00E+00	0.00E+00
	5250000000	-7.40E-02	-2.35E-01	-7.43E-01	-5.44E-01	0.00E+00	0.00E+00	0.00E+00	0.00E+00
	5300000000	-3.68E-02	-1.46E-01	-6.03E-01	-6.80E-01	0.00E+00	0.00E+00	0.00E+00	0.00E+00
	5350000000	-5.50E-02	-1.88E-01	-4.55E-01	-7.41E-01	0.00E+00	0.00E+00	0.00E+00	0.00E+00
	5400000000	-1.60E-01	-1.11E-01	-2.42E-01	-7.95E-01	0.00E+00	0.00E+00	0.00E+00	0.00E+00
	5450000000	-9.98E-02	7.31E-02	-6.55E-02	-8.43E-01	0.00E+00	0.00E+00	0.00E+00	0.00E+00
	5500000000	1.24E-01	6.66E-02	6.71E-02	-8.05E-01	0.00E+00	0.00E+00	0.00E+00	0.00E+00
	5550000000	1.85E-01	-1.31E-01	2.38E-01	-6.94E-01	0.00E+00	0.00E+00	0.00E+00	0.00E+00
	5600000000	4.79E-02	-2.02E-01	4.00E-01	-5.57E-01	0.00E+00	0.00E+00	0.00E+00	0.00E+00
	5650000000	3.85E-02	-1.36E-01	5.50E-01	-4.10E-01	0.00E+00	0.00E+00	0.00E+00	0.00E+00
	5700000000	8.74E-02	-1.44E-01	6.60E-01	-2.73E-01	0.00E+00	0.00E+00	0.00E+00	0.00E+00
	5750000000	1.26E-01	-2.28E-01	7.11E-01	-1.10E-01	0.00E+00	0.00E+00	0.00E+00	0.00E+00
	5800000000	5.88E-02	-3.23E-01	7.33E-01	5.35E-02	0.00E+00	0.00E+00	0.00E+00	0.00E+00
	5850000000	-5.93E-02	-3.20E-01	7.01E-01	2.19E-01	0.00E+00	0.00E+00	0.00E+00	0.00E+00
	5900000000	-8.07E-02	-2.24E-01	6.57E-01	3.87E-01	0.00E+00	0.00E+00	0.00E+00	0.00E+00
	5950000000	-1.02E-02	-2.34E-01	5.92E-01	4.99E-01	0.00E+00	0.00E+00	0.00E+00	0.00E+00
	6000000000	-1.21E-01	-2.76E-01	7.43E-01	4.16E-02	0.00E+00	0.00E+00	0.00E+00	0.00E+00
